# Electronic Supplementary Material (ESI) for ChemComm.
# This journal is  The Royal Society of Chemistry 2017

####################################################################### 
# 
# This file contains crystal structure data downloaded from the 
# Cambridge Structural Database (CSD) hosted by the Cambridge 
# Crystallographic Data Centre (CCDC).
# 
# Full information about CCDC data access policies and citation 
# guidelines are available at http://www.ccdc.cam.ac.uk/access/V1 
# 
# Audit and citation data items may have been added by the CCDC. 
# Please retain this information to preserve the provenance of 
# this file and to allow appropriate attribution of the data. 
# 
#######################################################################

data_0120ku
_database_code_depnum_ccdc_archive 'CCDC 1533109'
_audit_update_record             
;
2017-02-16 deposited with the CCDC.
2017-03-08 downloaded from the CCDC.
;

_audit_creation_method           SHELXL-2014
_chemical_name_systematic        
;
 ?
;
_chemical_name_common            ?
_chemical_melting_point          ?
_chemical_formula_moiety         'C72 H46 N6 S6, 4(C2 H4 Cl2)'
_chemical_formula_sum            'C80 H62 Cl8 N6 S6'
_chemical_formula_weight         1583.31

loop_
_atom_type_symbol
_atom_type_description
_atom_type_scat_dispersion_real
_atom_type_scat_dispersion_imag
_atom_type_scat_source
C C 0.0033 0.0016 'International Tables Vol C Tables 4.2.6.8 and 6.1.1.4'
N N 0.0061 0.0033 'International Tables Vol C Tables 4.2.6.8 and 6.1.1.4'
S S 0.1246 0.1234 'International Tables Vol C Tables 4.2.6.8 and 6.1.1.4'
Cl Cl 0.1484 0.1585 'International Tables Vol C Tables 4.2.6.8 and 6.1.1.4'
H H 0.0000 0.0000 'International Tables Vol C Tables 4.2.6.8 and 6.1.1.4'

_space_group_crystal_system      triclinic
_space_group_IT_number           2
_space_group_name_H-M_alt        'P -1'
_space_group_name_Hall           '-P 1'

_shelx_space_group_comment       
;
The symmetry employed for this shelxl refinement is uniquely defined
by the following loop, which should always be used as a source of
symmetry information in preference to the above space-group names.
They are only intended as comments.
;

loop_
_space_group_symop_operation_xyz
'x, y, z'
'-x, -y, -z'

_cell_length_a                   11.472(3)
_cell_length_b                   16.667(4)
_cell_length_c                   20.525(5)
_cell_angle_alpha                95.2182(17)
_cell_angle_beta                 98.218(3)
_cell_angle_gamma                107.846(4)
_cell_volume                     3659.0(15)
_cell_formula_units_Z            2
_cell_measurement_temperature    123(2)
_cell_measurement_reflns_used    10285
_cell_measurement_theta_min      3.0145
_cell_measurement_theta_max      27.4874

_exptl_crystal_description       prism
_exptl_crystal_colour            violet
_exptl_crystal_density_meas      ?
_exptl_crystal_density_method    ?
_exptl_crystal_density_diffrn    1.437
_exptl_crystal_F_000             1632
_exptl_transmission_factor_min   ?
_exptl_transmission_factor_max   ?
_exptl_crystal_size_max          0.300
_exptl_crystal_size_mid          0.300
_exptl_crystal_size_min          0.100
_exptl_absorpt_coefficient_mu    0.530
_shelx_estimated_absorpt_T_min   0.857
_shelx_estimated_absorpt_T_max   0.949
_exptl_absorpt_correction_type   Multi-scan
_exptl_absorpt_correction_T_min  0.8411
_exptl_absorpt_correction_T_max  1.0000
_exptl_absorpt_process_details   ?

_exptl_special_details           
;
 ?
;

_diffrn_ambient_temperature      123(2)
_diffrn_radiation_wavelength     0.7107
_diffrn_radiation_type           MoK\a
_diffrn_source                   'Rotating Anode'
_diffrn_measurement_device_type  'Saturn70 CCD (4x4 bin mode)'
_diffrn_measurement_method       dtprofit.ref
_diffrn_detector_area_resol_mean 28.5714
_diffrn_reflns_number            29871
_diffrn_reflns_av_unetI/netI     0.0693
_diffrn_reflns_av_R_equivalents  0.0360
_diffrn_reflns_limit_h_min       -12
_diffrn_reflns_limit_h_max       14
_diffrn_reflns_limit_k_min       -21
_diffrn_reflns_limit_k_max       21
_diffrn_reflns_limit_l_min       -26
_diffrn_reflns_limit_l_max       18
_diffrn_reflns_theta_min         3.014
_diffrn_reflns_theta_max         27.501
_diffrn_reflns_theta_full        25.241
_diffrn_measured_fraction_theta_max 0.958
_diffrn_measured_fraction_theta_full 0.978
_diffrn_reflns_Laue_measured_fraction_max 0.958
_diffrn_reflns_Laue_measured_fraction_full 0.978
_diffrn_reflns_point_group_measured_fraction_max 0.958
_diffrn_reflns_point_group_measured_fraction_full 0.978
_reflns_number_total             16097
_reflns_number_gt                11045
_reflns_threshold_expression     'I > 2\s(I)'
_reflns_Friedel_coverage         0.000
_reflns_Friedel_fraction_max     .
_reflns_Friedel_fraction_full    .

_reflns_special_details          
;
 Reflections were merged by SHELXL according to the crystal
 class for the calculation of statistics and refinement.
 
 _reflns_Friedel_fraction is defined as the number of unique
 Friedel pairs measured divided by the number that would be
 possible theoretically, ignoring centric projections and
 systematic absences.
;

_computing_data_collection       ?
_computing_cell_refinement       ?
_computing_data_reduction        ?
_computing_structure_solution    ?
_computing_structure_refinement  'SHELXL-2014 (Sheldrick, 2014)'
_computing_molecular_graphics    ?
_computing_publication_material  ?

_refine_special_details          
;
 ?
;
_refine_ls_structure_factor_coef Fsqd
_refine_ls_matrix_type           full
_refine_ls_weighting_scheme      calc
_refine_ls_weighting_details     
'w=1/[\s^2^(Fo^2^)+(0.1868P)^2^+4.0953P] where P=(Fo^2^+2Fc^2^)/3'
_atom_sites_solution_primary     ?
_atom_sites_solution_secondary   ?
_atom_sites_solution_hydrogens   geom
_refine_ls_hydrogen_treatment    constr
_refine_ls_extinction_method     none
_refine_ls_extinction_coef       .
_refine_ls_number_reflns         16097
_refine_ls_number_parameters     987
_refine_ls_number_restraints     264
_refine_ls_R_factor_all          0.1178
_refine_ls_R_factor_gt           0.0921
_refine_ls_wR_factor_ref         0.3047
_refine_ls_wR_factor_gt          0.2747
_refine_ls_goodness_of_fit_ref   1.040
_refine_ls_restrained_S_all      1.080
_refine_ls_shift/su_max          0.002
_refine_ls_shift/su_mean         0.000

loop_
_atom_site_label
_atom_site_type_symbol
_atom_site_fract_x
_atom_site_fract_y
_atom_site_fract_z
_atom_site_U_iso_or_equiv
_atom_site_adp_type
_atom_site_occupancy
_atom_site_site_symmetry_order
_atom_site_calc_flag
_atom_site_refinement_flags_posn
_atom_site_refinement_flags_adp
_atom_site_refinement_flags_occupancy
_atom_site_disorder_assembly
_atom_site_disorder_group
C1 C 0.0742(4) -0.0270(3) 0.2735(2) 0.0313(9) Uani 1 1 d . . . . .
C2 C -0.0540(4) -0.0734(3) 0.2453(2) 0.0323(9) Uani 1 1 d . . . . .
C3 C -0.1083(4) -0.0256(3) 0.2014(2) 0.0333(9) Uani 1 1 d . . . . .
C4 C -0.0172(4) 0.0538(3) 0.1961(2) 0.0313(9) Uani 1 1 d . . . . .
C5 C -0.0596(4) 0.0988(3) 0.1504(2) 0.0322(9) Uani 1 1 d . . . . .
C6 C 0.0033(4) 0.1765(3) 0.1259(2) 0.0312(9) Uani 1 1 d . . . . .
C7 C -0.0598(4) 0.2175(3) 0.0804(2) 0.0351(10) Uani 1 1 d . . . . .
H1 H -0.1456 0.1983 0.0609 0.042 Uiso 1 1 calc R U . . .
C8 C 0.0282(4) 0.2888(3) 0.0715(2) 0.0333(9) Uani 1 1 d . . . . .
H2 H 0.0163 0.3303 0.0448 0.040 Uiso 1 1 calc R U . . .
C9 C 0.1448(4) 0.2896(3) 0.1106(2) 0.0304(9) Uani 1 1 d . . . . .
C10 C 0.2597(4) 0.3504(3) 0.1135(2) 0.0297(9) Uani 1 1 d . . . . .
C11 C 0.3760(4) 0.3427(3) 0.1436(2) 0.0296(9) Uani 1 1 d . . . . .
C12 C 0.4955(4) 0.4056(3) 0.1580(2) 0.0359(10) Uani 1 1 d . . . . .
H3 H 0.5144 0.4628 0.1495 0.043 Uiso 1 1 calc R U . . .
C13 C 0.5793(4) 0.3690(3) 0.1864(2) 0.0345(10) Uani 1 1 d . . . . .
H4 H 0.6659 0.3969 0.2017 0.041 Uiso 1 1 calc R U . . .
C14 C 0.5142(4) 0.2831(3) 0.1888(2) 0.0315(9) Uani 1 1 d . . . . .
C15 C 0.5619(4) 0.2188(3) 0.2123(2) 0.0321(9) Uani 1 1 d . . . . .
C16 C 0.4944(4) 0.1337(3) 0.2003(2) 0.0317(9) Uani 1 1 d . . . . .
C17 C 0.5347(5) 0.0630(3) 0.2205(3) 0.0412(11) Uani 1 1 d . . . . .
H5 H 0.6136 0.0671 0.2450 0.049 Uiso 1 1 calc R U . . .
C18 C 0.4389(4) -0.0087(3) 0.1978(2) 0.0373(10) Uani 1 1 d . . . . .
H6 H 0.4359 -0.0651 0.2039 0.045 Uiso 1 1 calc R U . . .
C19 C 0.3406(4) 0.0172(3) 0.1621(2) 0.0317(9) Uani 1 1 d . . . . .
C20 C 0.2224(4) -0.0394(3) 0.1282(2) 0.0307(9) Uani 1 1 d . . . . .
C21 C 0.1652(4) -0.1227(3) 0.1354(2) 0.0303(9) Uani 1 1 d . . . . .
C22 C 0.0426(4) -0.1613(3) 0.0957(2) 0.0312(9) Uani 1 1 d . . . . .
C23 C -0.0115(4) -0.2471(3) 0.1082(2) 0.0312(9) Uani 1 1 d . . . . .
C24 C 0.0702(4) -0.2700(3) 0.1578(2) 0.0294(9) Uani 1 1 d . . . . .
C25 C 0.0205(4) -0.3507(3) 0.1735(2) 0.0310(9) Uani 1 1 d . . . . .
C26 C 0.0781(4) -0.3930(3) 0.2203(2) 0.0300(9) Uani 1 1 d . . . . .
C27 C 0.0257(4) -0.4813(3) 0.2293(2) 0.0368(10) Uani 1 1 d . . . . .
H7 H -0.0535 -0.5202 0.2088 0.044 Uiso 1 1 calc R U . . .
C28 C 0.1125(4) -0.4966(3) 0.2725(2) 0.0382(11) Uani 1 1 d . . . . .
H8 H 0.1068 -0.5491 0.2887 0.046 Uiso 1 1 calc R U . . .
C29 C 0.2171(4) -0.4182(3) 0.2903(2) 0.0327(9) Uani 1 1 d . . . . .
C30 C 0.3261(4) -0.4072(3) 0.3332(2) 0.0346(10) Uani 1 1 d . . . . .
C31 C 0.4195(4) -0.3266(3) 0.3593(2) 0.0363(10) Uani 1 1 d . . . . .
C32 C 0.5426(5) -0.3121(3) 0.3933(3) 0.0451(12) Uani 1 1 d . . . . .
H9 H 0.5787 -0.3548 0.4032 0.054 Uiso 1 1 calc R U . . .
C33 C 0.5998(5) -0.2270(3) 0.4093(3) 0.0413(11) Uani 1 1 d . . . . .
H10 H 0.6828 -0.1998 0.4323 0.050 Uiso 1 1 calc R U . . .
C34 C 0.5149(4) -0.1858(3) 0.3859(2) 0.0336(10) Uani 1 1 d . . . . .
C35 C 0.5354(4) -0.0954(3) 0.3922(2) 0.0316(9) Uani 1 1 d . . . . .
C36 C 0.4444(4) -0.0588(3) 0.3780(2) 0.0321(9) Uani 1 1 d . . . . .
C37 C 0.4615(4) 0.0309(3) 0.3776(2) 0.0372(10) Uani 1 1 d . . . . .
H11 H 0.5376 0.0766 0.3913 0.045 Uiso 1 1 calc R U . . .
C38 C 0.3512(4) 0.0376(3) 0.3546(3) 0.0385(10) Uani 1 1 d . . . . .
H12 H 0.3332 0.0887 0.3486 0.046 Uiso 1 1 calc R U . . .
C39 C 0.2627(4) -0.0490(3) 0.3404(2) 0.0338(9) Uani 1 1 d . . . . .
C40 C 0.1329(4) -0.0716(3) 0.3116(2) 0.0340(9) Uani 1 1 d . . . . .
C41 C -0.2186(4) -0.0389(3) 0.1607(2) 0.0390(11) Uani 1 1 d . . . . .
H13 H -0.2895 -0.0880 0.1574 0.047 Uiso 1 1 calc R U . . .
S1 S -0.21475(11) 0.04309(8) 0.11579(6) 0.0408(3) Uani 1 1 d . . . . .
C42 C 0.0094(5) -0.1059(3) 0.0575(2) 0.0369(10) Uani 1 1 d . . . . .
H14 H -0.0673 -0.1196 0.0275 0.044 Uiso 1 1 calc R U . . .
S2 S 0.12369(12) -0.00845(7) 0.07068(6) 0.0371(3) Uani 1 1 d . . . . .
C43 C -0.1205(5) -0.3135(3) 0.0853(2) 0.0383(10) Uani 1 1 d . . . . .
H15 H -0.1859 -0.3110 0.0522 0.046 Uiso 1 1 calc R U . . .
S3 S -0.12393(11) -0.40100(8) 0.12360(6) 0.0391(3) Uani 1 1 d . . . . .
C44 C -0.0918(4) -0.1532(3) 0.2640(2) 0.0359(10) Uani 1 1 d . . . . .
H16 H -0.1735 -0.1928 0.2512 0.043 Uiso 1 1 calc R U . . .
S4 S 0.02847(11) -0.17172(7) 0.31385(6) 0.0380(3) Uani 1 1 d . . . . .
S5 S 0.12803(10) 0.07414(7) 0.24760(6) 0.0323(3) Uani 1 1 d . . . . .
N1 N 0.1243(3) 0.2181(2) 0.14411(18) 0.0308(8) Uani 1 1 d . . . . .
N2 N 0.3918(3) 0.2694(2) 0.16237(19) 0.0310(8) Uani 1 1 d . . . . .
H79 H 0.3319 0.2203 0.1581 0.037 Uiso 1 1 calc R U . . .
N3 N 0.3742(3) 0.1012(2) 0.16361(17) 0.0300(8) Uani 1 1 d . . . . .
S6 S 0.21214(10) -0.19040(7) 0.18713(5) 0.0312(3) Uani 1 1 d . . . . .
N4 N 0.1892(3) -0.3548(2) 0.25694(18) 0.0300(8) Uani 1 1 d . . . . .
N5 N 0.4067(3) -0.2480(2) 0.35602(18) 0.0323(8) Uani 1 1 d . . . . .
H80 H 0.3388 -0.2388 0.3374 0.039 Uiso 1 1 calc R U . . .
N6 N 0.3178(3) -0.1060(2) 0.35547(18) 0.0324(8) Uani 1 1 d . . . . .
C45 C 0.2648(4) 0.4287(3) 0.0827(2) 0.0295(9) Uani 1 1 d . . . . .
C46 C 0.3406(4) 0.4541(3) 0.0360(2) 0.0308(9) Uani 1 1 d . . . . .
H17 H 0.3952 0.4237 0.0260 0.037 Uiso 1 1 calc R U . . .
C47 C 0.3372(4) 0.5234(3) 0.0036(2) 0.0355(10) Uani 1 1 d . . . . .
H18 H 0.3891 0.5395 -0.0283 0.043 Uiso 1 1 calc R U . . .
C48 C 0.2585(4) 0.5696(3) 0.0176(3) 0.0398(11) Uani 1 1 d . . . . .
C49 C 0.1858(5) 0.5453(3) 0.0653(3) 0.0405(11) Uani 1 1 d . . . . .
H19 H 0.1333 0.5770 0.0759 0.049 Uiso 1 1 calc R U . . .
C50 C 0.1868(4) 0.4764(3) 0.0979(2) 0.0368(10) Uani 1 1 d . . . . .
H20 H 0.1355 0.4613 0.1303 0.044 Uiso 1 1 calc R U . . .
C51 C 0.2513(5) 0.6416(4) -0.0199(3) 0.0574(16) Uani 1 1 d . . . . .
H41 H 0.2556 0.6909 0.0115 0.086 Uiso 1 1 calc R U . . .
H42 H 0.1725 0.6239 -0.0516 0.086 Uiso 1 1 calc R U . . .
H43 H 0.3209 0.6571 -0.0440 0.086 Uiso 1 1 calc R U . . .
C52A C 0.6897(4) 0.2399(4) 0.2433(3) 0.023(2) Uani 0.558(7) 1 d G . P A 1
C53A C 0.7872(5) 0.2719(4) 0.2097(2) 0.0313(18) Uani 0.558(7) 1 d G . P A 1
H21 H 0.7703 0.2827 0.1653 0.038 Uiso 0.558(7) 1 calc R U P A 1
C54A C 0.9094(4) 0.2880(4) 0.2411(3) 0.0365(19) Uani 0.558(7) 1 d G . P A 1
H22 H 0.9760 0.3098 0.2181 0.044 Uiso 0.558(7) 1 calc R U P A 1
C55A C 0.9341(4) 0.2721(4) 0.3061(3) 0.036(3) Uani 0.558(7) 1 d G . P A 1
C56A C 0.8366(5) 0.2402(4) 0.3397(2) 0.050(3) Uani 0.558(7) 1 d G . P A 1
H23 H 0.8534 0.2293 0.3841 0.060 Uiso 0.558(7) 1 calc R U P A 1
C57A C 0.7144(4) 0.2241(5) 0.3083(3) 0.046(2) Uani 0.558(7) 1 d G . P A 1
H24 H 0.6477 0.2022 0.3312 0.055 Uiso 0.558(7) 1 calc R U P A 1
C58A C 1.0698(9) 0.2848(7) 0.3399(7) 0.059(3) Uani 0.558(7) 1 d . . P A 1
H44 H 1.1045 0.3406 0.3677 0.089 Uiso 0.558(7) 1 calc R U P A 1
H45 H 1.1203 0.2818 0.3057 0.089 Uiso 0.558(7) 1 calc R U P A 1
H46 H 1.0700 0.2400 0.3676 0.089 Uiso 0.558(7) 1 calc R U P A 1
C52B C 0.6990(5) 0.2578(5) 0.2587(4) 0.028(3) Uani 0.442(7) 1 d G . P A 2
C53B C 0.7243(6) 0.3147(5) 0.3168(4) 0.041(3) Uani 0.442(7) 1 d G . P A 2
H25 H 0.6619 0.3367 0.3288 0.049 Uiso 0.442(7) 1 calc R U P A 2
C54B C 0.8408(7) 0.3393(5) 0.3574(3) 0.048(3) Uani 0.442(7) 1 d G . P A 2
H26 H 0.8581 0.3781 0.3971 0.057 Uiso 0.442(7) 1 calc R U P A 2
C55B C 0.9321(5) 0.3070(5) 0.3398(4) 0.037(3) Uani 0.442(7) 1 d G . P A 2
C56B C 0.9068(6) 0.2502(5) 0.2817(4) 0.049(4) Uani 0.442(7) 1 d G . P A 2
H27 H 0.9692 0.2281 0.2697 0.059 Uiso 0.442(7) 1 calc R U P A 2
C57B C 0.7903(7) 0.2256(5) 0.2411(4) 0.044(3) Uani 0.442(7) 1 d G . P A 2
H28 H 0.7730 0.1867 0.2014 0.053 Uiso 0.442(7) 1 calc R U P A 2
C58B C 1.0596(10) 0.3331(10) 0.3845(7) 0.052(4) Uani 0.442(7) 1 d . . P A 2
H47 H 1.1209 0.3244 0.3584 0.078 Uiso 0.442(7) 1 calc R U P A 2
H48 H 1.0556 0.2983 0.4207 0.078 Uiso 0.442(7) 1 calc R U P A 2
H49 H 1.0842 0.3933 0.4032 0.078 Uiso 0.442(7) 1 calc R U P A 2
C59 C 0.3525(4) -0.4851(3) 0.3520(2) 0.0364(10) Uani 1 1 d . . . . .
C60 C 0.3552(5) -0.5470(3) 0.3027(3) 0.0482(13) Uani 1 1 d . . . . .
H29 H 0.3431 -0.5386 0.2574 0.058 Uiso 1 1 calc R U . . .
C61 C 0.3751(6) -0.6204(4) 0.3191(3) 0.0539(14) Uani 1 1 d . . . . .
H30 H 0.3795 -0.6611 0.2849 0.065 Uiso 1 1 calc R U . . .
C62 C 0.3890(5) -0.6365(3) 0.3850(3) 0.0472(13) Uani 1 1 d . . . . .
C63 C 0.3878(5) -0.5750(3) 0.4330(3) 0.0473(13) Uani 1 1 d . . . . .
H31 H 0.3987 -0.5840 0.4782 0.057 Uiso 1 1 calc R U . . .
C64 C 0.3711(5) -0.4995(3) 0.4178(3) 0.0458(13) Uani 1 1 d . . . . .
H32 H 0.3724 -0.4573 0.4525 0.055 Uiso 1 1 calc R U . . .
C65 C 0.4029(6) -0.7204(4) 0.4018(3) 0.0606(16) Uani 1 1 d . . . . .
H50 H 0.3203 -0.7620 0.3996 0.091 Uiso 1 1 calc R U . . .
H51 H 0.4513 -0.7116 0.4467 0.091 Uiso 1 1 calc R U . . .
H52 H 0.4460 -0.7417 0.3698 0.091 Uiso 1 1 calc R U . . .
C66A C 0.6707(7) -0.0372(4) 0.4170(5) 0.034(4) Uani 0.62(2) 1 d G U P B 3
C67A C 0.7046(9) 0.0195(7) 0.4758(5) 0.047(3) Uani 0.62(2) 1 d G U P B 3
H33 H 0.6442 0.0215 0.5026 0.056 Uiso 0.62(2) 1 calc R U P B 3
C68A C 0.8268(10) 0.0731(6) 0.4955(4) 0.051(3) Uani 0.62(2) 1 d G U P B 3
H34 H 0.8500 0.1118 0.5357 0.061 Uiso 0.62(2) 1 calc DR U P B 3
C69A C 0.9152(7) 0.0700(4) 0.4563(5) 0.041(4) Uani 0.62(2) 1 d G U P B 3
C70A C 0.8813(8) 0.0134(7) 0.3975(5) 0.039(3) Uani 0.62(2) 1 d G U P B 3
H35 H 0.9417 0.0113 0.3708 0.047 Uiso 0.62(2) 1 calc R U P B 3
C71A C 0.7590(8) -0.0402(6) 0.3779(4) 0.032(2) Uani 0.62(2) 1 d G U P B 3
H36 H 0.7359 -0.0789 0.3377 0.039 Uiso 0.62(2) 1 calc R U P B 3
C72A C 1.051(2) 0.1302(14) 0.4815(12) 0.057(5) Uani 0.62(2) 1 d . U P B 3
H53 H 1.0992 0.0995 0.5056 0.086 Uiso 0.62(2) 1 calc R U P B 3
H54 H 1.0499 0.1794 0.5112 0.086 Uiso 0.62(2) 1 calc R U P B 3
H55 H 1.0884 0.1498 0.4434 0.086 Uiso 0.62(2) 1 calc R U P B 3
C66B C 0.6681(12) -0.0397(7) 0.4114(8) 0.030(6) Uani 0.38(2) 1 d G U P B 4
C67B C 0.7150(17) -0.0101(12) 0.4785(7) 0.048(5) Uani 0.38(2) 1 d G U P B 4
H37 H 0.6634 -0.0262 0.5106 0.058 Uiso 0.38(2) 1 calc R U P B 4
C68B C 0.8374(18) 0.0431(13) 0.4986(6) 0.057(5) Uani 0.38(2) 1 d G U P B 4
H38 H 0.8694 0.0633 0.5445 0.069 Uiso 0.38(2) 1 calc R U P B 4
C69B C 0.9128(12) 0.0666(9) 0.4517(9) 0.044(6) Uani 0.38(2) 1 d G U P B 4
C70B C 0.8659(15) 0.0370(11) 0.3846(8) 0.042(4) Uani 0.38(2) 1 d G U P B 4
H39 H 0.9175 0.0531 0.3525 0.051 Uiso 0.38(2) 1 calc R U P B 4
C71B C 0.7436(16) -0.0161(11) 0.3644(7) 0.041(4) Uani 0.38(2) 1 d G U P B 4
H40 H 0.7115 -0.0363 0.3185 0.050 Uiso 0.38(2) 1 calc R U P B 4
C72B C 1.046(4) 0.119(2) 0.469(2) 0.060(9) Uani 0.38(2) 1 d . U P B 4
H56 H 1.0961 0.0875 0.4508 0.089 Uiso 0.38(2) 1 calc R U P B 4
H57 H 1.0707 0.1318 0.5174 0.089 Uiso 0.38(2) 1 calc R U P B 4
H58 H 1.0582 0.1722 0.4500 0.089 Uiso 0.38(2) 1 calc R U P B 4
C73 C 0.4439(5) 0.7095(3) 0.1762(3) 0.0443(12) Uani 1 1 d . . . . .
H59 H 0.3604 0.7010 0.1878 0.053 Uiso 1 1 calc R U . . .
H60 H 0.4376 0.7147 0.1283 0.053 Uiso 1 1 calc R U . . .
C74 C 0.4836(5) 0.6336(3) 0.1892(3) 0.0515(13) Uani 1 1 d . . . . .
H61 H 0.4173 0.5809 0.1666 0.062 Uiso 1 1 calc R U . . .
H62 H 0.4959 0.6308 0.2375 0.062 Uiso 1 1 calc R U . . .
Cl1 Cl 0.55137(12) 0.80579(7) 0.22355(6) 0.0435(3) Uani 1 1 d . . . . .
Cl2 Cl 0.62547(13) 0.64004(9) 0.15958(9) 0.0587(4) Uani 1 1 d . . . . .
C75 C 0.5151(6) 0.1347(4) 0.0327(3) 0.0537(14) Uani 1 1 d . . . . .
H63 H 0.5068 0.0877 0.0599 0.064 Uiso 1 1 calc R U . . .
H64 H 0.5738 0.1873 0.0601 0.064 Uiso 1 1 calc R U . . .
C76 C 0.3910(6) 0.1463(3) 0.0146(3) 0.0516(13) Uani 1 1 d . . . . .
H65 H 0.3569 0.1530 0.0557 0.062 Uiso 1 1 calc R U . . .
H66 H 0.3334 0.0942 -0.0141 0.062 Uiso 1 1 calc R U . . .
Cl3 Cl 0.5768(2) 0.11124(11) -0.03818(9) 0.0755(5) Uani 1 1 d . . . . .
Cl4 Cl 0.39613(15) 0.23547(11) -0.02736(8) 0.0602(4) Uani 1 1 d . . . . .
C77 C 0.8084(15) 0.2482(9) 0.5267(10) 0.244(9) Uani 1 1 d D U . . .
H81 H 0.7885 0.1987 0.5513 0.293 Uiso 1 1 calc DR U . . .
H82 H 0.8565 0.2367 0.4927 0.293 Uiso 1 1 calc DR U . . .
C78 C 0.8878(10) 0.3262(8) 0.5745(6) 0.139(5) Uani 1 1 d D U . . .
H83 H 0.9702 0.3198 0.5891 0.167 Uiso 1 1 calc DR U . . .
H84 H 0.8488 0.3289 0.6143 0.167 Uiso 1 1 calc R U . . .
Cl5 Cl 0.6807(4) 0.2575(4) 0.49009(17) 0.1811(18) Uani 1 1 d D U . . .
Cl6 Cl 0.9104(7) 0.4222(5) 0.5429(3) 0.273(3) Uani 1 1 d D U . . .
C79 C 1.1987(14) 0.3618(9) 0.6442(5) 0.285(10) Uani 1 1 d D U . . .
H85 H 1.1154 0.3181 0.6380 0.342 Uiso 1 1 calc DR U . . .
H86 H 1.2613 0.3331 0.6556 0.342 Uiso 1 1 calc R U . . .
C80 C 1.2106(10) 0.4297(4) 0.7040(3) 0.084(3) Uani 1 1 d D U . . .
H87 H 1.2874 0.4368 0.7361 0.101 Uiso 1 1 calc R U . . .
H88 H 1.1389 0.4094 0.7268 0.101 Uiso 1 1 calc R U . . .
Cl7 Cl 1.2192(10) 0.4019(13) 0.5645(4) 0.569(11) Uani 1 1 d D U . . .
Cl8 Cl 1.216(2) 0.5363(11) 0.6773(13) 1.01(3) Uani 1 1 d D U . . .

loop_
_atom_site_aniso_label
_atom_site_aniso_U_11
_atom_site_aniso_U_22
_atom_site_aniso_U_33
_atom_site_aniso_U_23
_atom_site_aniso_U_13
_atom_site_aniso_U_12
C1 0.032(2) 0.027(2) 0.034(2) 0.0047(16) 0.0132(18) 0.0060(17)
C2 0.034(2) 0.028(2) 0.033(2) 0.0056(17) 0.0103(18) 0.0043(17)
C3 0.034(2) 0.029(2) 0.034(2) 0.0042(17) 0.0097(18) 0.0029(18)
C4 0.032(2) 0.026(2) 0.034(2) 0.0040(16) 0.0099(18) 0.0059(17)
C5 0.031(2) 0.029(2) 0.036(2) 0.0068(17) 0.0116(18) 0.0070(17)
C6 0.034(2) 0.028(2) 0.033(2) 0.0056(17) 0.0102(18) 0.0087(17)
C7 0.031(2) 0.034(2) 0.042(2) 0.0100(19) 0.0093(19) 0.0090(18)
C8 0.030(2) 0.032(2) 0.040(2) 0.0109(18) 0.0078(18) 0.0104(18)
C9 0.033(2) 0.0247(19) 0.035(2) 0.0070(16) 0.0067(18) 0.0110(17)
C10 0.031(2) 0.0233(19) 0.035(2) 0.0065(16) 0.0061(17) 0.0086(17)
C11 0.027(2) 0.0211(18) 0.039(2) 0.0075(16) 0.0023(17) 0.0054(16)
C12 0.033(2) 0.025(2) 0.046(3) 0.0108(18) -0.0016(19) 0.0056(18)
C13 0.032(2) 0.026(2) 0.041(2) 0.0084(18) -0.0006(19) 0.0063(18)
C14 0.028(2) 0.029(2) 0.042(2) 0.0131(18) 0.0091(18) 0.0122(17)
C15 0.034(2) 0.031(2) 0.037(2) 0.0114(17) 0.0092(18) 0.0155(18)
C16 0.037(2) 0.029(2) 0.036(2) 0.0128(17) 0.0140(19) 0.0149(18)
C17 0.039(3) 0.037(2) 0.058(3) 0.024(2) 0.016(2) 0.018(2)
C18 0.038(2) 0.031(2) 0.049(3) 0.019(2) 0.012(2) 0.0142(19)
C19 0.043(2) 0.027(2) 0.032(2) 0.0129(16) 0.0135(19) 0.0160(19)
C20 0.046(3) 0.026(2) 0.027(2) 0.0084(16) 0.0109(18) 0.0198(19)
C21 0.037(2) 0.027(2) 0.032(2) 0.0099(16) 0.0102(18) 0.0147(18)
C22 0.037(2) 0.031(2) 0.028(2) 0.0108(17) 0.0055(17) 0.0138(18)
C23 0.037(2) 0.033(2) 0.028(2) 0.0095(17) 0.0044(18) 0.0168(19)
C24 0.032(2) 0.0251(19) 0.030(2) 0.0068(16) 0.0031(17) 0.0082(17)
C25 0.032(2) 0.029(2) 0.031(2) 0.0111(17) 0.0009(17) 0.0092(17)
C26 0.032(2) 0.0241(19) 0.032(2) 0.0093(16) 0.0054(17) 0.0058(17)
C27 0.035(2) 0.026(2) 0.042(2) 0.0131(18) 0.0003(19) 0.0003(18)
C28 0.043(3) 0.022(2) 0.042(2) 0.0143(18) -0.003(2) 0.0007(18)
C29 0.034(2) 0.0221(19) 0.038(2) 0.0120(17) -0.0014(18) 0.0042(17)
C30 0.037(2) 0.028(2) 0.037(2) 0.0139(17) -0.0009(19) 0.0068(18)
C31 0.036(2) 0.028(2) 0.039(2) 0.0115(18) -0.0037(19) 0.0042(18)
C32 0.038(3) 0.037(3) 0.053(3) 0.019(2) -0.008(2) 0.007(2)
C33 0.036(2) 0.036(2) 0.044(3) 0.012(2) -0.008(2) 0.005(2)
C34 0.035(2) 0.028(2) 0.030(2) 0.0093(17) 0.0000(18) -0.0007(18)
C35 0.035(2) 0.029(2) 0.0247(19) 0.0064(16) 0.0058(17) 0.0004(17)
C36 0.035(2) 0.027(2) 0.029(2) 0.0046(16) 0.0089(18) 0.0025(17)
C37 0.041(3) 0.023(2) 0.043(3) 0.0043(18) 0.012(2) 0.0010(18)
C38 0.038(3) 0.023(2) 0.054(3) 0.0059(19) 0.014(2) 0.0080(18)
C39 0.037(2) 0.028(2) 0.035(2) 0.0024(17) 0.0125(19) 0.0062(18)
C40 0.036(2) 0.028(2) 0.037(2) 0.0080(17) 0.0097(19) 0.0066(18)
C41 0.037(2) 0.033(2) 0.041(2) 0.0105(19) 0.010(2) 0.0011(19)
S1 0.0348(6) 0.0349(6) 0.0457(7) 0.0124(5) 0.0032(5) 0.0009(5)
C42 0.044(3) 0.036(2) 0.034(2) 0.0105(18) 0.0014(19) 0.017(2)
S2 0.0517(7) 0.0310(6) 0.0346(6) 0.0142(4) 0.0069(5) 0.0199(5)
C43 0.039(2) 0.040(2) 0.033(2) 0.0125(19) -0.0035(19) 0.011(2)
S3 0.0323(6) 0.0342(6) 0.0441(7) 0.0128(5) -0.0044(5) 0.0041(5)
C44 0.034(2) 0.031(2) 0.040(2) 0.0077(18) 0.0090(19) 0.0046(18)
S4 0.0383(6) 0.0285(5) 0.0456(7) 0.0117(5) 0.0098(5) 0.0058(5)
S5 0.0302(5) 0.0248(5) 0.0401(6) 0.0061(4) 0.0101(4) 0.0044(4)
N1 0.0298(18) 0.0245(17) 0.039(2) 0.0098(14) 0.0084(15) 0.0078(14)
N2 0.0282(18) 0.0228(17) 0.042(2) 0.0110(14) 0.0049(15) 0.0064(14)
N3 0.0366(19) 0.0264(17) 0.0305(18) 0.0076(14) 0.0064(15) 0.0139(15)
S6 0.0337(6) 0.0242(5) 0.0335(5) 0.0105(4) -0.0008(4) 0.0074(4)
N4 0.0319(18) 0.0239(17) 0.0326(18) 0.0120(14) 0.0015(15) 0.0063(14)
N5 0.0297(18) 0.0245(17) 0.0366(19) 0.0094(14) -0.0034(15) 0.0027(14)
N6 0.0329(19) 0.0271(18) 0.0346(19) 0.0057(14) 0.0073(15) 0.0050(15)
C45 0.027(2) 0.0239(19) 0.039(2) 0.0112(16) 0.0042(17) 0.0086(16)
C46 0.0228(19) 0.025(2) 0.040(2) 0.0077(17) -0.0014(17) 0.0040(16)
C47 0.023(2) 0.033(2) 0.045(3) 0.0157(19) -0.0004(18) 0.0011(17)
C48 0.031(2) 0.029(2) 0.054(3) 0.016(2) -0.003(2) 0.0045(18)
C49 0.039(3) 0.031(2) 0.057(3) 0.011(2) 0.006(2) 0.019(2)
C50 0.038(2) 0.029(2) 0.048(3) 0.0107(19) 0.010(2) 0.0142(19)
C51 0.045(3) 0.043(3) 0.083(4) 0.032(3) -0.001(3) 0.011(2)
C52A 0.025(4) 0.011(4) 0.027(4) 0.002(3) -0.001(3) 0.000(3)
C53A 0.030(4) 0.021(4) 0.041(4) 0.007(3) 0.001(3) 0.008(3)
C54A 0.026(4) 0.023(4) 0.053(5) 0.003(4) 0.002(4) 0.001(3)
C55A 0.022(4) 0.028(5) 0.054(7) 0.010(5) 0.000(5) 0.002(4)
C56A 0.039(5) 0.053(6) 0.051(5) 0.026(4) -0.005(4) 0.007(4)
C57A 0.035(5) 0.054(6) 0.046(5) 0.020(4) 0.004(4) 0.009(4)
C58A 0.037(5) 0.050(6) 0.084(8) 0.026(6) -0.010(5) 0.007(5)
C52B 0.025(6) 0.021(6) 0.033(6) -0.006(5) 0.000(4) 0.005(4)
C53B 0.035(6) 0.050(7) 0.036(6) -0.004(5) 0.003(4) 0.015(5)
C54B 0.040(6) 0.058(8) 0.036(6) -0.002(5) -0.004(5) 0.010(6)
C55B 0.034(6) 0.031(6) 0.038(6) 0.013(4) -0.013(5) 0.005(5)
C56B 0.029(7) 0.029(7) 0.086(12) -0.004(8) 0.010(7) 0.010(6)
C57B 0.032(6) 0.035(6) 0.060(7) -0.013(5) 0.004(5) 0.011(5)
C58B 0.023(5) 0.064(9) 0.057(8) 0.016(7) -0.008(5) 0.000(5)
C59 0.037(2) 0.026(2) 0.042(2) 0.0123(18) -0.0020(19) 0.0060(18)
C60 0.059(3) 0.043(3) 0.047(3) 0.021(2) 0.009(2) 0.019(3)
C61 0.072(4) 0.041(3) 0.060(3) 0.016(3) 0.017(3) 0.031(3)
C62 0.044(3) 0.034(3) 0.059(3) 0.015(2) -0.005(2) 0.009(2)
C63 0.053(3) 0.029(2) 0.043(3) 0.013(2) -0.022(2) 0.001(2)
C64 0.051(3) 0.028(2) 0.043(3) 0.0073(19) -0.020(2) 0.003(2)
C65 0.076(4) 0.041(3) 0.069(4) 0.023(3) -0.001(3) 0.027(3)
C66A 0.040(7) 0.031(6) 0.031(5) 0.009(5) 0.018(5) 0.006(5)
C67A 0.051(5) 0.034(6) 0.036(4) -0.006(4) 0.014(4) -0.014(4)
C68A 0.059(6) 0.039(6) 0.031(4) -0.006(4) 0.011(4) -0.015(5)
C69A 0.036(6) 0.032(6) 0.038(6) 0.008(5) -0.010(5) -0.006(6)
C70A 0.027(4) 0.041(6) 0.045(5) 0.005(4) 0.008(4) 0.003(4)
C71A 0.033(4) 0.033(5) 0.029(4) 0.002(3) 0.002(3) 0.012(4)
C72A 0.036(6) 0.047(8) 0.058(9) -0.005(6) -0.008(6) -0.020(5)
C66B 0.024(9) 0.021(8) 0.033(8) -0.001(7) -0.015(7) 0.000(8)
C67B 0.045(7) 0.043(10) 0.037(7) 0.001(7) 0.012(6) -0.015(7)
C68B 0.061(9) 0.041(9) 0.038(7) -0.003(7) -0.004(7) -0.021(8)
C69B 0.039(10) 0.038(10) 0.050(10) 0.011(9) 0.011(9) 0.002(9)
C70B 0.044(7) 0.035(8) 0.044(8) -0.001(6) 0.011(6) 0.007(6)
C71B 0.041(7) 0.045(8) 0.037(7) 0.006(6) 0.003(6) 0.014(7)
C72B 0.063(15) 0.042(12) 0.064(15) 0.024(12) -0.009(10) 0.009(11)
C73 0.039(3) 0.034(2) 0.058(3) 0.008(2) 0.007(2) 0.009(2)
C74 0.050(3) 0.031(2) 0.070(4) 0.010(2) 0.013(3) 0.006(2)
Cl1 0.0478(7) 0.0281(5) 0.0511(7) 0.0080(5) 0.0102(5) 0.0058(5)
Cl2 0.0448(7) 0.0392(7) 0.0958(12) 0.0140(7) 0.0212(7) 0.0141(6)
C75 0.080(4) 0.046(3) 0.044(3) 0.018(2) 0.019(3) 0.027(3)
C76 0.065(4) 0.038(3) 0.043(3) 0.008(2) 0.011(3) 0.004(3)
Cl3 0.1205(15) 0.0611(10) 0.0679(10) 0.0197(8) 0.0542(10) 0.0429(10)
Cl4 0.0673(9) 0.0662(9) 0.0592(9) 0.0288(7) 0.0176(7) 0.0305(8)
C77 0.180(15) 0.33(2) 0.230(18) 0.057(17) -0.001(14) 0.104(16)
C78 0.150(11) 0.176(13) 0.142(10) 0.095(9) 0.079(8) 0.083(10)
Cl5 0.179(4) 0.274(6) 0.095(2) 0.036(3) 0.034(2) 0.073(4)
Cl6 0.288(7) 0.250(7) 0.233(6) -0.010(5) -0.051(5) 0.075(6)
C79 0.214(16) 0.36(2) 0.29(2) 0.133(18) 0.018(16) 0.091(17)
C80 0.155(8) 0.052(4) 0.034(3) 0.014(3) 0.002(4) 0.023(4)
Cl7 0.373(10) 1.29(3) 0.331(11) 0.355(16) 0.196(9) 0.563(17)
Cl8 0.64(3) 1.03(4) 0.91(4) -0.09(4) -0.25(3) -0.16(3)

_geom_special_details            
;
 All esds (except the esd in the dihedral angle between two l.s. planes)
 are estimated using the full covariance matrix.  The cell esds are taken
 into account individually in the estimation of esds in distances, angles
 and torsion angles; correlations between esds in cell parameters are only
 used when they are defined by crystal symmetry.  An approximate (isotropic)
 treatment of cell esds is used for estimating esds involving l.s. planes.
;

loop_
_geom_bond_atom_site_label_1
_geom_bond_atom_site_label_2
_geom_bond_distance
_geom_bond_site_symmetry_2
_geom_bond_publ_flag
C1 C40 1.372(6) . ?
C1 C2 1.440(6) . ?
C1 S5 1.768(4) . ?
C2 C44 1.375(6) . ?
C2 C3 1.452(6) . ?
C3 C41 1.357(7) . ?
C3 C4 1.438(6) . ?
C4 C5 1.379(6) . ?
C4 S5 1.758(5) . ?
C5 C6 1.449(6) . ?
C5 S1 1.744(5) . ?
C6 N1 1.327(6) . ?
C6 C7 1.444(6) . ?
C7 C8 1.350(6) . ?
C7 H1 0.9500 . ?
C8 C9 1.454(6) . ?
C8 H2 0.9500 . ?
C9 C10 1.384(6) . ?
C9 N1 1.405(5) . ?
C10 C11 1.436(6) . ?
C10 C45 1.491(5) . ?
C11 N2 1.371(5) . ?
C11 C12 1.418(6) . ?
C12 C13 1.379(6) . ?
C12 H3 0.9500 . ?
C13 C14 1.406(6) . ?
C13 H4 0.9500 . ?
C14 N2 1.371(6) . ?
C14 C15 1.436(6) . ?
C15 C16 1.371(6) . ?
C15 C52A 1.433(6) . ?
C15 C52B 1.624(7) . ?
C16 N3 1.390(6) . ?
C16 C17 1.463(6) . ?
C17 C18 1.342(7) . ?
C17 H5 0.9500 . ?
C18 C19 1.453(6) . ?
C18 H6 0.9500 . ?
C19 N3 1.331(5) . ?
C19 C20 1.428(7) . ?
C20 C21 1.374(6) . ?
C20 S2 1.740(4) . ?
C21 C22 1.442(6) . ?
C21 S6 1.766(4) . ?
C22 C42 1.369(6) . ?
C22 C23 1.436(6) . ?
C23 C43 1.378(6) . ?
C23 C24 1.442(6) . ?
C24 C25 1.379(6) . ?
C24 S6 1.739(4) . ?
C25 C26 1.443(6) . ?
C25 S3 1.733(4) . ?
C26 N4 1.318(5) . ?
C26 C27 1.450(6) . ?
C27 C28 1.336(6) . ?
C27 H7 0.9500 . ?
C28 C29 1.452(6) . ?
C28 H8 0.9500 . ?
C29 C30 1.374(6) . ?
C29 N4 1.400(5) . ?
C30 C31 1.436(6) . ?
C30 C59 1.493(6) . ?
C31 N5 1.368(6) . ?
C31 C32 1.421(6) . ?
C32 C33 1.353(7) . ?
C32 H9 0.9500 . ?
C33 C34 1.409(7) . ?
C33 H10 0.9500 . ?
C34 N5 1.367(5) . ?
C34 C35 1.443(6) . ?
C35 C36 1.372(7) . ?
C35 C66B 1.493(12) . ?
C35 C66A 1.540(8) . ?
C36 N6 1.408(6) . ?
C36 C37 1.448(6) . ?
C37 C38 1.327(7) . ?
C37 H11 0.9500 . ?
C38 C39 1.462(6) . ?
C38 H12 0.9500 . ?
C39 N6 1.329(6) . ?
C39 C40 1.439(6) . ?
C40 S4 1.739(4) . ?
C41 S1 1.710(5) . ?
C41 H13 0.9500 . ?
C42 S2 1.715(5) . ?
C42 H14 0.9500 . ?
C43 S3 1.712(5) . ?
C43 H15 0.9500 . ?
C44 S4 1.720(5) . ?
C44 H16 0.9500 . ?
N2 H79 0.8800 . ?
N5 H80 0.8800 . ?
C45 C46 1.394(6) . ?
C45 C50 1.415(6) . ?
C46 C47 1.391(6) . ?
C46 H17 0.9500 . ?
C47 C48 1.397(7) . ?
C47 H18 0.9500 . ?
C48 C49 1.384(7) . ?
C48 C51 1.500(7) . ?
C49 C50 1.383(6) . ?
C49 H19 0.9500 . ?
C50 H20 0.9500 . ?
C51 H41 0.9800 . ?
C51 H42 0.9800 . ?
C51 H43 0.9800 . ?
C52A C53A 1.3900 . ?
C52A C57A 1.3900 . ?
C53A C54A 1.3900 . ?
C53A H21 0.9500 . ?
C54A C55A 1.3900 . ?
C54A H22 0.9500 . ?
C55A C56A 1.3900 . ?
C55A C58A 1.553(10) . ?
C56A C57A 1.3900 . ?
C56A H23 0.9500 . ?
C57A H24 0.9500 . ?
C58A H44 0.9800 . ?
C58A H45 0.9800 . ?
C58A H46 0.9800 . ?
C52B C53B 1.3900 . ?
C52B C57B 1.3900 . ?
C53B C54B 1.3900 . ?
C53B H25 0.9500 . ?
C54B C55B 1.3900 . ?
C54B H26 0.9500 . ?
C55B C56B 1.3900 . ?
C55B C58B 1.525(12) . ?
C56B C57B 1.3900 . ?
C56B H27 0.9500 . ?
C57B H28 0.9500 . ?
C58B H47 0.9800 . ?
C58B H48 0.9800 . ?
C58B H49 0.9800 . ?
C59 C60 1.389(7) . ?
C59 C64 1.390(7) . ?
C60 C61 1.372(7) . ?
C60 H29 0.9500 . ?
C61 C62 1.400(8) . ?
C61 H30 0.9500 . ?
C62 C63 1.361(8) . ?
C62 C65 1.518(7) . ?
C63 C64 1.385(7) . ?
C63 H31 0.9500 . ?
C64 H32 0.9500 . ?
C65 H50 0.9800 . ?
C65 H51 0.9800 . ?
C65 H52 0.9800 . ?
C66A C67A 1.3900 . ?
C66A C71A 1.3900 . ?
C67A C68A 1.3900 . ?
C67A H33 0.9500 . ?
C68A C69A 1.3900 . ?
C68A H34 0.9500 . ?
C69A C70A 1.3900 . ?
C69A C72A 1.55(2) . ?
C70A C71A 1.3900 . ?
C70A H35 0.9500 . ?
C71A H36 0.9500 . ?
C72A H53 0.9800 . ?
C72A H54 0.9800 . ?
C72A H55 0.9800 . ?
C66B C67B 1.3900 . ?
C66B C71B 1.3900 . ?
C67B C68B 1.3900 . ?
C67B H37 0.9500 . ?
C68B C69B 1.3900 . ?
C68B H38 0.9500 . ?
C69B C70B 1.3900 . ?
C69B C72B 1.48(4) . ?
C70B C71B 1.3900 . ?
C70B H39 0.9500 . ?
C71B H40 0.9500 . ?
C72B H56 0.9800 . ?
C72B H57 0.9800 . ?
C72B H58 0.9800 . ?
C73 C74 1.503(7) . ?
C73 Cl1 1.789(5) . ?
C73 H59 0.9900 . ?
C73 H60 0.9900 . ?
C74 Cl2 1.793(6) . ?
C74 H61 0.9900 . ?
C74 H62 0.9900 . ?
C75 C76 1.495(9) . ?
C75 Cl3 1.770(6) . ?
C75 H63 0.9900 . ?
C75 H64 0.9900 . ?
C76 Cl4 1.775(6) . ?
C76 H65 0.9900 . ?
C76 H66 0.9900 . ?
C77 C78 1.506(9) . ?
C77 Cl5 1.606(14) . ?
C77 H81 0.9900 . ?
C77 H82 0.9900 . ?
C78 Cl6 1.741(11) . ?
C78 H83 0.9900 . ?
C78 H84 0.9900 . ?
C79 C80 1.553(9) . ?
C79 Cl7 1.841(9) . ?
C79 H85 0.9900 . ?
C79 H86 0.9900 . ?
C80 Cl8 1.89(2) . ?
C80 H87 0.9900 . ?
C80 H88 0.9900 . ?

loop_
_geom_angle_atom_site_label_1
_geom_angle_atom_site_label_2
_geom_angle_atom_site_label_3
_geom_angle
_geom_angle_site_symmetry_1
_geom_angle_site_symmetry_3
_geom_angle_publ_flag
C40 C1 C2 114.1(4) . . ?
C40 C1 S5 132.4(3) . . ?
C2 C1 S5 113.3(3) . . ?
C44 C2 C1 112.1(4) . . ?
C44 C2 C3 136.2(4) . . ?
C1 C2 C3 111.6(4) . . ?
C41 C3 C4 112.2(4) . . ?
C41 C3 C2 136.8(4) . . ?
C4 C3 C2 110.7(4) . . ?
C5 C4 C3 113.7(4) . . ?
C5 C4 S5 132.1(3) . . ?
C3 C4 S5 114.2(3) . . ?
C4 C5 C6 131.6(4) . . ?
C4 C5 S1 109.1(3) . . ?
C6 C5 S1 119.1(3) . . ?
N1 C6 C7 113.3(4) . . ?
N1 C6 C5 123.2(4) . . ?
C7 C6 C5 123.5(4) . . ?
C8 C7 C6 105.9(4) . . ?
C8 C7 H1 127.0 . . ?
C6 C7 H1 127.0 . . ?
C7 C8 C9 106.5(4) . . ?
C7 C8 H2 126.7 . . ?
C9 C8 H2 126.7 . . ?
C10 C9 N1 124.7(4) . . ?
C10 C9 C8 125.4(4) . . ?
N1 C9 C8 109.9(4) . . ?
C9 C10 C11 124.4(4) . . ?
C9 C10 C45 118.6(4) . . ?
C11 C10 C45 117.1(4) . . ?
N2 C11 C12 106.4(4) . . ?
N2 C11 C10 124.9(4) . . ?
C12 C11 C10 128.6(4) . . ?
C13 C12 C11 108.1(4) . . ?
C13 C12 H3 126.0 . . ?
C11 C12 H3 126.0 . . ?
C12 C13 C14 108.0(4) . . ?
C12 C13 H4 126.0 . . ?
C14 C13 H4 126.0 . . ?
N2 C14 C13 107.0(4) . . ?
N2 C14 C15 124.3(4) . . ?
C13 C14 C15 128.6(4) . . ?
C16 C15 C52A 115.9(4) . . ?
C16 C15 C14 123.0(4) . . ?
C52A C15 C14 120.7(4) . . ?
C16 C15 C52B 123.8(5) . . ?
C14 C15 C52B 113.0(5) . . ?
C15 C16 N3 123.5(4) . . ?
C15 C16 C17 127.5(4) . . ?
N3 C16 C17 109.0(4) . . ?
C18 C17 C16 106.9(4) . . ?
C18 C17 H5 126.5 . . ?
C16 C17 H5 126.5 . . ?
C17 C18 C19 106.2(4) . . ?
C17 C18 H6 126.9 . . ?
C19 C18 H6 126.9 . . ?
N3 C19 C20 123.0(4) . . ?
N3 C19 C18 111.8(4) . . ?
C20 C19 C18 125.2(4) . . ?
C21 C20 C19 128.3(4) . . ?
C21 C20 S2 108.8(3) . . ?
C19 C20 S2 122.9(3) . . ?
C20 C21 C22 114.7(4) . . ?
C20 C21 S6 131.6(4) . . ?
C22 C21 S6 113.7(3) . . ?
C42 C22 C23 137.8(4) . . ?
C42 C22 C21 111.4(4) . . ?
C23 C22 C21 110.8(4) . . ?
C43 C23 C22 137.0(4) . . ?
C43 C23 C24 111.4(4) . . ?
C22 C23 C24 111.6(4) . . ?
C25 C24 C23 113.8(4) . . ?
C25 C24 S6 132.1(3) . . ?
C23 C24 S6 114.1(3) . . ?
C24 C25 C26 127.7(4) . . ?
C24 C25 S3 109.7(3) . . ?
C26 C25 S3 122.5(3) . . ?
N4 C26 C25 122.1(4) . . ?
N4 C26 C27 113.1(4) . . ?
C25 C26 C27 124.7(4) . . ?
C28 C27 C26 105.4(4) . . ?
C28 C27 H7 127.3 . . ?
C26 C27 H7 127.3 . . ?
C27 C28 C29 107.4(4) . . ?
C27 C28 H8 126.3 . . ?
C29 C28 H8 126.3 . . ?
C30 C29 N4 125.1(4) . . ?
C30 C29 C28 125.7(4) . . ?
N4 C29 C28 109.2(4) . . ?
C29 C30 C31 125.1(4) . . ?
C29 C30 C59 117.7(4) . . ?
C31 C30 C59 117.1(4) . . ?
N5 C31 C32 106.4(4) . . ?
N5 C31 C30 126.2(4) . . ?
C32 C31 C30 127.4(4) . . ?
C33 C32 C31 108.4(4) . . ?
C33 C32 H9 125.8 . . ?
C31 C32 H9 125.8 . . ?
C32 C33 C34 108.2(4) . . ?
C32 C33 H10 125.9 . . ?
C34 C33 H10 125.9 . . ?
N5 C34 C33 107.1(4) . . ?
N5 C34 C35 125.5(4) . . ?
C33 C34 C35 127.4(4) . . ?
C36 C35 C34 125.0(4) . . ?
C36 C35 C66B 119.2(6) . . ?
C34 C35 C66B 115.7(6) . . ?
C36 C35 C66A 118.8(4) . . ?
C34 C35 C66A 116.2(5) . . ?
C35 C36 N6 123.5(4) . . ?
C35 C36 C37 127.1(4) . . ?
N6 C36 C37 109.2(4) . . ?
C38 C37 C36 107.3(4) . . ?
C38 C37 H11 126.4 . . ?
C36 C37 H11 126.4 . . ?
C37 C38 C39 106.7(4) . . ?
C37 C38 H12 126.7 . . ?
C39 C38 H12 126.7 . . ?
N6 C39 C40 123.2(4) . . ?
N6 C39 C38 111.4(4) . . ?
C40 C39 C38 125.3(4) . . ?
C1 C40 C39 128.7(4) . . ?
C1 C40 S4 109.4(3) . . ?
C39 C40 S4 121.5(3) . . ?
C3 C41 S1 112.0(3) . . ?
C3 C41 H13 124.0 . . ?
S1 C41 H13 124.0 . . ?
C41 S1 C5 93.0(2) . . ?
C22 C42 S2 111.6(4) . . ?
C22 C42 H14 124.2 . . ?
S2 C42 H14 124.2 . . ?
C42 S2 C20 93.5(2) . . ?
C23 C43 S3 111.8(3) . . ?
C23 C43 H15 124.1 . . ?
S3 C43 H15 124.1 . . ?
C43 S3 C25 93.2(2) . . ?
C2 C44 S4 111.0(3) . . ?
C2 C44 H16 124.5 . . ?
S4 C44 H16 124.5 . . ?
C44 S4 C40 93.4(2) . . ?
C4 S5 C1 90.0(2) . . ?
C6 N1 C9 104.4(4) . . ?
C11 N2 C14 110.5(3) . . ?
C11 N2 H79 124.8 . . ?
C14 N2 H79 124.8 . . ?
C19 N3 C16 106.0(4) . . ?
C24 S6 C21 89.9(2) . . ?
C26 N4 C29 104.9(3) . . ?
C34 N5 C31 110.0(4) . . ?
C34 N5 H80 125.0 . . ?
C31 N5 H80 125.0 . . ?
C39 N6 C36 105.4(4) . . ?
C46 C45 C50 118.5(4) . . ?
C46 C45 C10 121.3(4) . . ?
C50 C45 C10 120.1(4) . . ?
C47 C46 C45 120.8(4) . . ?
C47 C46 H17 119.6 . . ?
C45 C46 H17 119.6 . . ?
C46 C47 C48 120.8(4) . . ?
C46 C47 H18 119.6 . . ?
C48 C47 H18 119.6 . . ?
C49 C48 C47 118.1(4) . . ?
C49 C48 C51 121.6(5) . . ?
C47 C48 C51 120.3(5) . . ?
C50 C49 C48 122.3(5) . . ?
C50 C49 H19 118.8 . . ?
C48 C49 H19 118.8 . . ?
C49 C50 C45 119.5(4) . . ?
C49 C50 H20 120.2 . . ?
C45 C50 H20 120.2 . . ?
C48 C51 H41 109.5 . . ?
C48 C51 H42 109.5 . . ?
H41 C51 H42 109.5 . . ?
C48 C51 H43 109.5 . . ?
H41 C51 H43 109.5 . . ?
H42 C51 H43 109.5 . . ?
C53A C52A C57A 120.0 . . ?
C53A C52A C15 122.3(4) . . ?
C57A C52A C15 117.7(4) . . ?
C54A C53A C52A 120.0 . . ?
C54A C53A H21 120.0 . . ?
C52A C53A H21 120.0 . . ?
C53A C54A C55A 120.0 . . ?
C53A C54A H22 120.0 . . ?
C55A C54A H22 120.0 . . ?
C56A C55A C54A 120.0 . . ?
C56A C55A C58A 119.7(6) . . ?
C54A C55A C58A 120.1(6) . . ?
C57A C56A C55A 120.0 . . ?
C57A C56A H23 120.0 . . ?
C55A C56A H23 120.0 . . ?
C56A C57A C52A 120.0 . . ?
C56A C57A H24 120.0 . . ?
C52A C57A H24 120.0 . . ?
C55A C58A H44 109.5 . . ?
C55A C58A H45 109.5 . . ?
H44 C58A H45 109.5 . . ?
C55A C58A H46 109.5 . . ?
H44 C58A H46 109.5 . . ?
H45 C58A H46 109.5 . . ?
C53B C52B C57B 120.0 . . ?
C53B C52B C15 123.1(5) . . ?
C57B C52B C15 116.6(5) . . ?
C54B C53B C52B 120.0 . . ?
C54B C53B H25 120.0 . . ?
C52B C53B H25 120.0 . . ?
C53B C54B C55B 120.0 . . ?
C53B C54B H26 120.0 . . ?
C55B C54B H26 120.0 . . ?
C54B C55B C56B 120.0 . . ?
C54B C55B C58B 120.2(8) . . ?
C56B C55B C58B 119.8(8) . . ?
C57B C56B C55B 120.0 . . ?
C57B C56B H27 120.0 . . ?
C55B C56B H27 120.0 . . ?
C56B C57B C52B 120.0 . . ?
C56B C57B H28 120.0 . . ?
C52B C57B H28 120.0 . . ?
C55B C58B H47 109.5 . . ?
C55B C58B H48 109.5 . . ?
H47 C58B H48 109.5 . . ?
C55B C58B H49 109.5 . . ?
H47 C58B H49 109.5 . . ?
H48 C58B H49 109.5 . . ?
C60 C59 C64 118.2(4) . . ?
C60 C59 C30 119.6(4) . . ?
C64 C59 C30 122.1(5) . . ?
C61 C60 C59 120.3(5) . . ?
C61 C60 H29 119.9 . . ?
C59 C60 H29 119.9 . . ?
C60 C61 C62 121.6(5) . . ?
C60 C61 H30 119.2 . . ?
C62 C61 H30 119.2 . . ?
C63 C62 C61 117.5(5) . . ?
C63 C62 C65 121.5(5) . . ?
C61 C62 C65 120.9(5) . . ?
C62 C63 C64 121.8(5) . . ?
C62 C63 H31 119.1 . . ?
C64 C63 H31 119.1 . . ?
C63 C64 C59 120.5(5) . . ?
C63 C64 H32 119.8 . . ?
C59 C64 H32 119.8 . . ?
C62 C65 H50 109.5 . . ?
C62 C65 H51 109.5 . . ?
H50 C65 H51 109.5 . . ?
C62 C65 H52 109.5 . . ?
H50 C65 H52 109.5 . . ?
H51 C65 H52 109.5 . . ?
C67A C66A C71A 120.0 . . ?
C67A C66A C35 121.7(6) . . ?
C71A C66A C35 118.3(6) . . ?
C66A C67A C68A 120.0 . . ?
C66A C67A H33 120.0 . . ?
C68A C67A H33 120.0 . . ?
C69A C68A C67A 120.0 . . ?
C69A C68A H34 120.0 . . ?
C67A C68A H34 120.0 . . ?
C70A C69A C68A 120.0 . . ?
C70A C69A C72A 122.3(12) . . ?
C68A C69A C72A 117.7(12) . . ?
C71A C70A C69A 120.0 . . ?
C71A C70A H35 120.0 . . ?
C69A C70A H35 120.0 . . ?
C70A C71A C66A 120.0 . . ?
C70A C71A H36 120.0 . . ?
C66A C71A H36 120.0 . . ?
C69A C72A H53 109.5 . . ?
C69A C72A H54 109.5 . . ?
H53 C72A H54 109.5 . . ?
C69A C72A H55 109.5 . . ?
H53 C72A H55 109.5 . . ?
H54 C72A H55 109.5 . . ?
C67B C66B C71B 120.0 . . ?
C67B C66B C35 117.9(10) . . ?
C71B C66B C35 122.1(10) . . ?
C66B C67B C68B 120.0 . . ?
C66B C67B H37 120.0 . . ?
C68B C67B H37 120.0 . . ?
C67B C68B C69B 120.0 . . ?
C67B C68B H38 120.0 . . ?
C69B C68B H38 120.0 . . ?
C70B C69B C68B 120.0 . . ?
C70B C69B C72B 116(2) . . ?
C68B C69B C72B 124(2) . . ?
C69B C70B C71B 120.0 . . ?
C69B C70B H39 120.0 . . ?
C71B C70B H39 120.0 . . ?
C70B C71B C66B 120.0 . . ?
C70B C71B H40 120.0 . . ?
C66B C71B H40 120.0 . . ?
C69B C72B H56 109.5 . . ?
C69B C72B H57 109.5 . . ?
H56 C72B H57 109.5 . . ?
C69B C72B H58 109.5 . . ?
H56 C72B H58 109.5 . . ?
H57 C72B H58 109.5 . . ?
C74 C73 Cl1 111.6(4) . . ?
C74 C73 H59 109.3 . . ?
Cl1 C73 H59 109.3 . . ?
C74 C73 H60 109.3 . . ?
Cl1 C73 H60 109.3 . . ?
H59 C73 H60 108.0 . . ?
C73 C74 Cl2 111.0(4) . . ?
C73 C74 H61 109.4 . . ?
Cl2 C74 H61 109.4 . . ?
C73 C74 H62 109.4 . . ?
Cl2 C74 H62 109.4 . . ?
H61 C74 H62 108.0 . . ?
C76 C75 Cl3 112.3(4) . . ?
C76 C75 H63 109.2 . . ?
Cl3 C75 H63 109.2 . . ?
C76 C75 H64 109.2 . . ?
Cl3 C75 H64 109.2 . . ?
H63 C75 H64 107.9 . . ?
C75 C76 Cl4 113.6(4) . . ?
C75 C76 H65 108.8 . . ?
Cl4 C76 H65 108.8 . . ?
C75 C76 H66 108.8 . . ?
Cl4 C76 H66 108.8 . . ?
H65 C76 H66 107.7 . . ?
C78 C77 Cl5 113.2(9) . . ?
C78 C77 H81 108.9 . . ?
Cl5 C77 H81 108.9 . . ?
C78 C77 H82 108.9 . . ?
Cl5 C77 H82 108.9 . . ?
H81 C77 H82 107.8 . . ?
C77 C78 Cl6 115.1(9) . . ?
C77 C78 H83 108.5 . . ?
Cl6 C78 H83 108.5 . . ?
C77 C78 H84 108.5 . . ?
Cl6 C78 H84 108.5 . . ?
H83 C78 H84 107.5 . . ?
C80 C79 Cl7 115.7(8) . . ?
C80 C79 H85 108.3 . . ?
Cl7 C79 H85 108.3 . . ?
C80 C79 H86 108.3 . . ?
Cl7 C79 H86 108.3 . . ?
H85 C79 H86 107.4 . . ?
C79 C80 Cl8 112.2(8) . . ?
C79 C80 H87 109.2 . . ?
Cl8 C80 H87 109.2 . . ?
C79 C80 H88 109.2 . . ?
Cl8 C80 H88 109.2 . . ?
H87 C80 H88 107.9 . . ?

loop_
_geom_torsion_atom_site_label_1
_geom_torsion_atom_site_label_2
_geom_torsion_atom_site_label_3
_geom_torsion_atom_site_label_4
_geom_torsion
_geom_torsion_site_symmetry_1
_geom_torsion_site_symmetry_2
_geom_torsion_site_symmetry_3
_geom_torsion_site_symmetry_4
_geom_torsion_publ_flag
C40 C1 C2 C44 1.4(6) . . . . ?
S5 C1 C2 C44 177.4(3) . . . . ?
C40 C1 C2 C3 -175.6(4) . . . . ?
S5 C1 C2 C3 0.5(5) . . . . ?
C44 C2 C3 C41 0.1(10) . . . . ?
C1 C2 C3 C41 176.0(5) . . . . ?
C44 C2 C3 C4 -173.5(5) . . . . ?
C1 C2 C3 C4 2.4(5) . . . . ?
C41 C3 C4 C5 -1.0(6) . . . . ?
C2 C3 C4 C5 174.3(4) . . . . ?
C41 C3 C4 S5 -179.6(3) . . . . ?
C2 C3 C4 S5 -4.3(5) . . . . ?
C3 C4 C5 C6 -174.2(4) . . . . ?
S5 C4 C5 C6 4.2(8) . . . . ?
C3 C4 C5 S1 1.6(5) . . . . ?
S5 C4 C5 S1 180.0(3) . . . . ?
C4 C5 C6 N1 2.8(8) . . . . ?
S1 C5 C6 N1 -172.6(3) . . . . ?
C4 C5 C6 C7 -175.7(5) . . . . ?
S1 C5 C6 C7 8.9(6) . . . . ?
N1 C6 C7 C8 -0.9(5) . . . . ?
C5 C6 C7 C8 177.7(4) . . . . ?
C6 C7 C8 C9 1.1(5) . . . . ?
C7 C8 C9 C10 177.5(4) . . . . ?
C7 C8 C9 N1 -1.0(5) . . . . ?
N1 C9 C10 C11 9.0(7) . . . . ?
C8 C9 C10 C11 -169.4(4) . . . . ?
N1 C9 C10 C45 -172.0(4) . . . . ?
C8 C9 C10 C45 9.7(7) . . . . ?
C9 C10 C11 N2 12.5(7) . . . . ?
C45 C10 C11 N2 -166.6(4) . . . . ?
C9 C10 C11 C12 -169.6(5) . . . . ?
C45 C10 C11 C12 11.3(7) . . . . ?
N2 C11 C12 C13 -1.4(5) . . . . ?
C10 C11 C12 C13 -179.6(4) . . . . ?
C11 C12 C13 C14 1.2(6) . . . . ?
C12 C13 C14 N2 -0.6(5) . . . . ?
C12 C13 C14 C15 178.1(5) . . . . ?
N2 C14 C15 C16 11.8(7) . . . . ?
C13 C14 C15 C16 -166.7(5) . . . . ?
N2 C14 C15 C52A -175.9(5) . . . . ?
C13 C14 C15 C52A 5.6(8) . . . . ?
N2 C14 C15 C52B -164.2(5) . . . . ?
C13 C14 C15 C52B 17.3(7) . . . . ?
C52A C15 C16 N3 -172.0(4) . . . . ?
C14 C15 C16 N3 0.7(7) . . . . ?
C52B C15 C16 N3 176.2(5) . . . . ?
C52A C15 C16 C17 5.8(7) . . . . ?
C14 C15 C16 C17 178.5(4) . . . . ?
C52B C15 C16 C17 -6.0(8) . . . . ?
C15 C16 C17 C18 -179.8(5) . . . . ?
N3 C16 C17 C18 -1.7(5) . . . . ?
C16 C17 C18 C19 1.5(5) . . . . ?
C17 C18 C19 N3 -0.8(5) . . . . ?
C17 C18 C19 C20 178.2(4) . . . . ?
N3 C19 C20 C21 -163.2(4) . . . . ?
C18 C19 C20 C21 18.0(7) . . . . ?
N3 C19 C20 S2 14.5(6) . . . . ?
C18 C19 C20 S2 -164.4(3) . . . . ?
C19 C20 C21 C22 177.3(4) . . . . ?
S2 C20 C21 C22 -0.6(5) . . . . ?
C19 C20 C21 S6 0.2(7) . . . . ?
S2 C20 C21 S6 -177.7(3) . . . . ?
C20 C21 C22 C42 1.1(6) . . . . ?
S6 C21 C22 C42 178.7(3) . . . . ?
C20 C21 C22 C23 -177.9(4) . . . . ?
S6 C21 C22 C23 -0.3(5) . . . . ?
C42 C22 C23 C43 2.9(10) . . . . ?
C21 C22 C23 C43 -178.5(5) . . . . ?
C42 C22 C23 C24 -177.3(5) . . . . ?
C21 C22 C23 C24 1.3(5) . . . . ?
C43 C23 C24 C25 -2.5(6) . . . . ?
C22 C23 C24 C25 177.6(4) . . . . ?
C43 C23 C24 S6 178.0(3) . . . . ?
C22 C23 C24 S6 -1.8(5) . . . . ?
C23 C24 C25 C26 179.3(4) . . . . ?
S6 C24 C25 C26 -1.4(8) . . . . ?
C23 C24 C25 S3 3.4(5) . . . . ?
S6 C24 C25 S3 -177.3(3) . . . . ?
C24 C25 C26 N4 3.0(8) . . . . ?
S3 C25 C26 N4 178.4(4) . . . . ?
C24 C25 C26 C27 -173.1(5) . . . . ?
S3 C25 C26 C27 2.3(7) . . . . ?
N4 C26 C27 C28 -1.6(6) . . . . ?
C25 C26 C27 C28 174.8(5) . . . . ?
C26 C27 C28 C29 0.3(6) . . . . ?
C27 C28 C29 C30 -179.4(5) . . . . ?
C27 C28 C29 N4 0.9(6) . . . . ?
N4 C29 C30 C31 11.0(8) . . . . ?
C28 C29 C30 C31 -168.6(5) . . . . ?
N4 C29 C30 C59 -166.2(4) . . . . ?
C28 C29 C30 C59 14.2(8) . . . . ?
C29 C30 C31 N5 12.7(8) . . . . ?
C59 C30 C31 N5 -170.1(5) . . . . ?
C29 C30 C31 C32 -167.3(5) . . . . ?
C59 C30 C31 C32 9.9(8) . . . . ?
N5 C31 C32 C33 -0.1(6) . . . . ?
C30 C31 C32 C33 179.9(5) . . . . ?
C31 C32 C33 C34 0.0(6) . . . . ?
C32 C33 C34 N5 0.1(6) . . . . ?
C32 C33 C34 C35 179.6(5) . . . . ?
N5 C34 C35 C36 10.2(7) . . . . ?
C33 C34 C35 C36 -169.2(5) . . . . ?
N5 C34 C35 C66B -165.5(8) . . . . ?
C33 C34 C35 C66B 15.1(10) . . . . ?
N5 C34 C35 C66A -170.0(5) . . . . ?
C33 C34 C35 C66A 10.6(8) . . . . ?
C34 C35 C36 N6 0.3(7) . . . . ?
C66B C35 C36 N6 175.9(8) . . . . ?
C66A C35 C36 N6 -179.6(5) . . . . ?
C34 C35 C36 C37 -173.9(4) . . . . ?
C66B C35 C36 C37 1.7(10) . . . . ?
C66A C35 C36 C37 6.3(7) . . . . ?
C35 C36 C37 C38 173.6(4) . . . . ?
N6 C36 C37 C38 -1.3(5) . . . . ?
C36 C37 C38 C39 0.2(5) . . . . ?
C37 C38 C39 N6 1.1(6) . . . . ?
C37 C38 C39 C40 -177.0(4) . . . . ?
C2 C1 C40 C39 172.0(4) . . . . ?
S5 C1 C40 C39 -3.1(8) . . . . ?
C2 C1 C40 S4 -0.8(5) . . . . ?
S5 C1 C40 S4 -175.9(3) . . . . ?
N6 C39 C40 C1 -155.1(5) . . . . ?
C38 C39 C40 C1 22.7(8) . . . . ?
N6 C39 C40 S4 16.9(6) . . . . ?
C38 C39 C40 S4 -165.2(4) . . . . ?
C4 C3 C41 S1 -0.2(5) . . . . ?
C2 C3 C41 S1 -173.7(5) . . . . ?
C3 C41 S1 C5 0.9(4) . . . . ?
C4 C5 S1 C41 -1.4(4) . . . . ?
C6 C5 S1 C41 174.9(4) . . . . ?
C23 C22 C42 S2 177.6(5) . . . . ?
C21 C22 C42 S2 -1.0(5) . . . . ?
C22 C42 S2 C20 0.6(4) . . . . ?
C21 C20 S2 C42 0.0(3) . . . . ?
C19 C20 S2 C42 -178.0(4) . . . . ?
C22 C23 C43 S3 -179.7(5) . . . . ?
C24 C23 C43 S3 0.5(5) . . . . ?
C23 C43 S3 C25 1.2(4) . . . . ?
C24 C25 S3 C43 -2.6(4) . . . . ?
C26 C25 S3 C43 -178.8(4) . . . . ?
C1 C2 C44 S4 -1.2(5) . . . . ?
C3 C2 C44 S4 174.6(5) . . . . ?
C2 C44 S4 C40 0.7(4) . . . . ?
C1 C40 S4 C44 0.1(4) . . . . ?
C39 C40 S4 C44 -173.3(4) . . . . ?
C5 C4 S5 C1 -174.4(5) . . . . ?
C3 C4 S5 C1 3.9(3) . . . . ?
C40 C1 S5 C4 172.6(5) . . . . ?
C2 C1 S5 C4 -2.5(3) . . . . ?
C7 C6 N1 C9 0.3(5) . . . . ?
C5 C6 N1 C9 -178.4(4) . . . . ?
C10 C9 N1 C6 -178.1(4) . . . . ?
C8 C9 N1 C6 0.4(5) . . . . ?
C12 C11 N2 C14 1.0(5) . . . . ?
C10 C11 N2 C14 179.3(4) . . . . ?
C13 C14 N2 C11 -0.3(5) . . . . ?
C15 C14 N2 C11 -179.1(4) . . . . ?
C20 C19 N3 C16 -179.3(4) . . . . ?
C18 C19 N3 C16 -0.3(5) . . . . ?
C15 C16 N3 C19 179.3(4) . . . . ?
C17 C16 N3 C19 1.2(5) . . . . ?
C25 C24 S6 C21 -177.9(5) . . . . ?
C23 C24 S6 C21 1.4(4) . . . . ?
C20 C21 S6 C24 176.5(5) . . . . ?
C22 C21 S6 C24 -0.6(3) . . . . ?
C25 C26 N4 C29 -174.3(4) . . . . ?
C27 C26 N4 C29 2.2(5) . . . . ?
C30 C29 N4 C26 178.5(5) . . . . ?
C28 C29 N4 C26 -1.9(5) . . . . ?
C33 C34 N5 C31 -0.2(5) . . . . ?
C35 C34 N5 C31 -179.7(4) . . . . ?
C32 C31 N5 C34 0.2(5) . . . . ?
C30 C31 N5 C34 -179.8(5) . . . . ?
C40 C39 N6 C36 176.3(4) . . . . ?
C38 C39 N6 C36 -1.8(5) . . . . ?
C35 C36 N6 C39 -173.2(4) . . . . ?
C37 C36 N6 C39 1.9(5) . . . . ?
C9 C10 C45 C46 -126.3(5) . . . . ?
C11 C10 C45 C46 52.8(6) . . . . ?
C9 C10 C45 C50 50.1(6) . . . . ?
C11 C10 C45 C50 -130.7(5) . . . . ?
C50 C45 C46 C47 -1.7(6) . . . . ?
C10 C45 C46 C47 174.8(4) . . . . ?
C45 C46 C47 C48 0.5(7) . . . . ?
C46 C47 C48 C49 1.1(7) . . . . ?
C46 C47 C48 C51 -177.1(5) . . . . ?
C47 C48 C49 C50 -1.4(7) . . . . ?
C51 C48 C49 C50 176.7(5) . . . . ?
C48 C49 C50 C45 0.2(8) . . . . ?
C46 C45 C50 C49 1.4(7) . . . . ?
C10 C45 C50 C49 -175.2(4) . . . . ?
C16 C15 C52A C53A 110.5(5) . . . . ?
C14 C15 C52A C53A -62.4(7) . . . . ?
C52B C15 C52A C53A -119(2) . . . . ?
C16 C15 C52A C57A -66.9(6) . . . . ?
C14 C15 C52A C57A 120.2(5) . . . . ?
C52B C15 C52A C57A 64(2) . . . . ?
C57A C52A C53A C54A 0.0 . . . . ?
C15 C52A C53A C54A -177.3(6) . . . . ?
C52A C53A C54A C55A 0.0 . . . . ?
C53A C54A C55A C56A 0.0 . . . . ?
C53A C54A C55A C58A 176.3(8) . . . . ?
C54A C55A C56A C57A 0.0 . . . . ?
C58A C55A C56A C57A -176.3(8) . . . . ?
C55A C56A C57A C52A 0.0 . . . . ?
C53A C52A C57A C56A 0.0 . . . . ?
C15 C52A C57A C56A 177.4(6) . . . . ?
C16 C15 C52B C53B -117.7(6) . . . . ?
C52A C15 C52B C53B -173(2) . . . . ?
C14 C15 C52B C53B 58.3(7) . . . . ?
C16 C15 C52B C57B 56.4(7) . . . . ?
C52A C15 C52B C57B 1.1(18) . . . . ?
C14 C15 C52B C57B -127.7(5) . . . . ?
C57B C52B C53B C54B 0.0 . . . . ?
C15 C52B C53B C54B 173.9(7) . . . . ?
C52B C53B C54B C55B 0.0 . . . . ?
C53B C54B C55B C56B 0.0 . . . . ?
C53B C54B C55B C58B -179.4(9) . . . . ?
C54B C55B C56B C57B 0.0 . . . . ?
C58B C55B C56B C57B 179.4(9) . . . . ?
C55B C56B C57B C52B 0.0 . . . . ?
C53B C52B C57B C56B 0.0 . . . . ?
C15 C52B C57B C56B -174.3(7) . . . . ?
C29 C30 C59 C60 56.5(7) . . . . ?
C31 C30 C59 C60 -121.0(5) . . . . ?
C29 C30 C59 C64 -121.5(5) . . . . ?
C31 C30 C59 C64 61.1(7) . . . . ?
C64 C59 C60 C61 0.3(8) . . . . ?
C30 C59 C60 C61 -177.7(5) . . . . ?
C59 C60 C61 C62 2.2(9) . . . . ?
C60 C61 C62 C63 -3.0(9) . . . . ?
C60 C61 C62 C65 176.1(6) . . . . ?
C61 C62 C63 C64 1.2(8) . . . . ?
C65 C62 C63 C64 -177.9(5) . . . . ?
C62 C63 C64 C59 1.2(8) . . . . ?
C60 C59 C64 C63 -2.0(8) . . . . ?
C30 C59 C64 C63 176.0(5) . . . . ?
C36 C35 C66A C67A 61.2(7) . . . . ?
C34 C35 C66A C67A -118.6(6) . . . . ?
C66B C35 C66A C67A 158(10) . . . . ?
C36 C35 C66A C71A -116.6(7) . . . . ?
C34 C35 C66A C71A 63.6(8) . . . . ?
C66B C35 C66A C71A -20(9) . . . . ?
C71A C66A C67A C68A 0.0 . . . . ?
C35 C66A C67A C68A -177.8(7) . . . . ?
C66A C67A C68A C69A 0.0 . . . . ?
C67A C68A C69A C70A 0.0 . . . . ?
C67A C68A C69A C72A -178.9(12) . . . . ?
C68A C69A C70A C71A 0.0 . . . . ?
C72A C69A C70A C71A 178.9(13) . . . . ?
C69A C70A C71A C66A 0.0 . . . . ?
C67A C66A C71A C70A 0.0 . . . . ?
C35 C66A C71A C70A 177.9(6) . . . . ?
C36 C35 C66B C67B 90.2(12) . . . . ?
C34 C35 C66B C67B -93.8(12) . . . . ?
C66A C35 C66B C67B 5(9) . . . . ?
C36 C35 C66B C71B -88.8(12) . . . . ?
C34 C35 C66B C71B 87.2(11) . . . . ?
C66A C35 C66B C71B -174(10) . . . . ?
C71B C66B C67B C68B 0.0 . . . . ?
C35 C66B C67B C68B -179.0(10) . . . . ?
C66B C67B C68B C69B 0.0 . . . . ?
C67B C68B C69B C70B 0.0 . . . . ?
C67B C68B C69B C72B -177(2) . . . . ?
C68B C69B C70B C71B 0.0 . . . . ?
C72B C69B C70B C71B 177(2) . . . . ?
C69B C70B C71B C66B 0.0 . . . . ?
C67B C66B C71B C70B 0.0 . . . . ?
C35 C66B C71B C70B 178.9(11) . . . . ?
Cl1 C73 C74 Cl2 -66.0(5) . . . . ?
Cl3 C75 C76 Cl4 -64.6(5) . . . . ?
Cl5 C77 C78 Cl6 -48.6(18) . . . . ?
Cl7 C79 C80 Cl8 9.9(15) . . . . ?

_refine_diff_density_max         1.826
_refine_diff_density_min         -1.851
_refine_diff_density_rms         0.127

_shelxl_version_number           2014-3

_shelx_res_file                  
;
TITL
REM  Yadorkari-X generated
CELL 0.71070 11.4716 16.6665 20.5251 95.2182 98.2178 107.8462
ZERR 2.0 0.0027 0.0041 0.0048 0.0017 0.0031 0.0036
LATT 1
REM  SPGR P-1 triclinic
SFAC C N S Cl H
UNIT 160 12 12 16 124
SIZE 0.30 0.30 0.10
TEMP -150.0
L.S. 20
FMAP 2
PLAN -20
ACTA
CONF
HTAB
BOND $H
MERG 2
EQIV $1 +X, -1+Y, +Z
EQIV $2 1-X, -Y, 1-Z
EQIV $3 -1+X, -1+Y, +Z
EQIV $4 +X, 1+Y, +Z
EQIV $5 -X, -Y, -Z
EQIV $6 1-X, 1-Y, 1-Z
EQIV $7 -X, -Y, 1-Z
EQIV $8 -X, 1-Y, 1-Z
EQIV $9 1+X, +Y, +Z
EQIV $10 2-X, 1-Y, 1-Z
EQIV $11 2-X, -Y, 1-Z

DFIX 1.54 0.01 C77 C78
DFIX 1.76 0.03 C77 Cl5
DFIX 1.76 0.03 C78 Cl6
SADI 0.03 C77 Cl6 C78 Cl5
DFIX 1.54 0.01 C79 C80
DFIX 1.76 0.01 C79 Cl7
DFIX 1.76 0.03 C80 Cl8
DFIX 3.35 0.03 Cl7 Cl8
SADI 0.01 C79 Cl8 C80 Cl7
SIMU 0.03 C66A > C72B
ISOR 0.01 C72B
SIMU 0.03 C77 > Cl8
DFIX 1.75 0.05 H34 H82
DFIX 1.85 0.01 H34 H81
DFIX 1.85 0.01 H83 H85

WGHT    0.186800    4.095300
FVAR       3.74331   0.55802   0.62390
C1    1    0.074165   -0.027023    0.273526    11.00000    0.03178    0.02741 =
         0.03449    0.00468    0.01323    0.00598
C2    1   -0.053991   -0.073416    0.245314    11.00000    0.03406    0.02759 =
         0.03298    0.00562    0.01034    0.00428
C3    1   -0.108318   -0.025593    0.201447    11.00000    0.03366    0.02850 =
         0.03384    0.00418    0.00966    0.00292
C4    1   -0.017153    0.053809    0.196128    11.00000    0.03204    0.02640 =
         0.03409    0.00395    0.00991    0.00589
C5    1   -0.059575    0.098799    0.150403    11.00000    0.03149    0.02898 =
         0.03641    0.00679    0.01160    0.00698
C6    1    0.003252    0.176500    0.125885    11.00000    0.03364    0.02779 =
         0.03298    0.00560    0.01017    0.00872
C7    1   -0.059773    0.217519    0.080449    11.00000    0.03052    0.03356 =
         0.04186    0.00995    0.00927    0.00897
AFIX  43
H1    5   -0.145554    0.198273    0.060897    11.00000   -1.20000
AFIX   0
C8    1    0.028212    0.288825    0.071457    11.00000    0.02973    0.03173 =
         0.04031    0.01086    0.00780    0.01041
AFIX  43
H2    5    0.016298    0.330330    0.044777    11.00000   -1.20000
AFIX   0
C9    1    0.144770    0.289625    0.110620    11.00000    0.03328    0.02475 =
         0.03496    0.00696    0.00673    0.01103
C10   1    0.259685    0.350354    0.113508    11.00000    0.03134    0.02329 =
         0.03491    0.00651    0.00607    0.00859
C11   1    0.376028    0.342741    0.143584    11.00000    0.02673    0.02110 =
         0.03877    0.00752    0.00227    0.00545
C12   1    0.495485    0.405565    0.157990    11.00000    0.03325    0.02451 =
         0.04582    0.01085   -0.00162    0.00562
AFIX  43
H3    5    0.514435    0.462842    0.149523    11.00000   -1.20000
AFIX   0
C13   1    0.579338    0.369015    0.186432    11.00000    0.03189    0.02639 =
         0.04139    0.00840   -0.00057    0.00626
AFIX  43
H4    5    0.665907    0.396944    0.201745    11.00000   -1.20000
AFIX   0
C14   1    0.514205    0.283134    0.188792    11.00000    0.02816    0.02874 =
         0.04202    0.01310    0.00906    0.01224
C15   1    0.561862    0.218781    0.212328    11.00000    0.03398    0.03084 =
         0.03711    0.01142    0.00924    0.01548
C16   1    0.494422    0.133666    0.200269    11.00000    0.03685    0.02855 =
         0.03646    0.01283    0.01398    0.01487
C17   1    0.534676    0.063012    0.220467    11.00000    0.03905    0.03688 =
         0.05782    0.02409    0.01643    0.01848
AFIX  43
H5    5    0.613579    0.067108    0.244961    11.00000   -1.20000
AFIX   0
C18   1    0.438878   -0.008694    0.197793    11.00000    0.03848    0.03073 =
         0.04868    0.01874    0.01242    0.01416
AFIX  43
H6    5    0.435886   -0.065081    0.203850    11.00000   -1.20000
AFIX   0
C19   1    0.340604    0.017161    0.162112    11.00000    0.04337    0.02658 =
         0.03216    0.01288    0.01350    0.01599
C20   1    0.222388   -0.039381    0.128168    11.00000    0.04635    0.02616 =
         0.02748    0.00842    0.01085    0.01983
C21   1    0.165213   -0.122701    0.135368    11.00000    0.03723    0.02654 =
         0.03243    0.00985    0.01015    0.01475
C22   1    0.042575   -0.161350    0.095653    11.00000    0.03730    0.03096 =
         0.02844    0.01081    0.00547    0.01382
C23   1   -0.011496   -0.247082    0.108157    11.00000    0.03707    0.03265 =
         0.02841    0.00949    0.00437    0.01685
C24   1    0.070174   -0.269972    0.157790    11.00000    0.03238    0.02506 =
         0.02982    0.00682    0.00308    0.00815
C25   1    0.020460   -0.350740    0.173507    11.00000    0.03181    0.02931 =
         0.03130    0.01110    0.00090    0.00918
C26   1    0.078072   -0.392995    0.220295    11.00000    0.03226    0.02407 =
         0.03241    0.00927    0.00536    0.00583
C27   1    0.025714   -0.481344    0.229320    11.00000    0.03497    0.02608 =
         0.04210    0.01314    0.00034    0.00025
AFIX  43
H7    5   -0.053522   -0.520179    0.208843    11.00000   -1.20000
AFIX   0
C28   1    0.112490   -0.496583    0.272533    11.00000    0.04296    0.02191 =
         0.04168    0.01430   -0.00256    0.00074
AFIX  43
H8    5    0.106793   -0.549050    0.288672    11.00000   -1.20000
AFIX   0
C29   1    0.217073   -0.418169    0.290264    11.00000    0.03374    0.02206 =
         0.03793    0.01202   -0.00139    0.00417
C30   1    0.326077   -0.407180    0.333162    11.00000    0.03658    0.02769 =
         0.03652    0.01386   -0.00087    0.00678
C31   1    0.419516   -0.326573    0.359284    11.00000    0.03595    0.02820 =
         0.03867    0.01153   -0.00371    0.00420
C32   1    0.542639   -0.312093    0.393341    11.00000    0.03828    0.03739 =
         0.05318    0.01949   -0.00838    0.00667
AFIX  43
H9    5    0.578682   -0.354839    0.403223    11.00000   -1.20000
AFIX   0
C33   1    0.599774   -0.227032    0.409290    11.00000    0.03594    0.03588 =
         0.04401    0.01216   -0.00808    0.00498
AFIX  43
H10   5    0.682758   -0.199797    0.432264    11.00000   -1.20000
AFIX   0
C34   1    0.514862   -0.185837    0.385921    11.00000    0.03456    0.02820 =
         0.02981    0.00934   -0.00004   -0.00070
C35   1    0.535423   -0.095387    0.392213    11.00000    0.03493    0.02883 =
         0.02471    0.00637    0.00578    0.00043
C36   1    0.444423   -0.058782    0.378013    11.00000    0.03540    0.02741 =
         0.02934    0.00457    0.00891    0.00250
C37   1    0.461515    0.030949    0.377643    11.00000    0.04080    0.02285 =
         0.04271    0.00432    0.01156    0.00101
AFIX  43
H11   5    0.537555    0.076570    0.391324    11.00000   -1.20000
AFIX   0
C38   1    0.351171    0.037587    0.354631    11.00000    0.03839    0.02327 =
         0.05434    0.00590    0.01379    0.00796
AFIX  43
H12   5    0.333169    0.088671    0.348596    11.00000   -1.20000
AFIX   0
C39   1    0.262702   -0.048985    0.340374    11.00000    0.03714    0.02792 =
         0.03481    0.00242    0.01252    0.00619
C40   1    0.132887   -0.071643    0.311646    11.00000    0.03602    0.02817 =
         0.03670    0.00804    0.00968    0.00658
C41   1   -0.218552   -0.038940    0.160659    11.00000    0.03702    0.03330 =
         0.04143    0.01046    0.00972    0.00115
AFIX  43
H13   5   -0.289457   -0.088050    0.157413    11.00000   -1.20000
AFIX   0
S1    3   -0.214752    0.043094    0.115789    11.00000    0.03481    0.03485 =
         0.04566    0.01242    0.00323    0.00086
C42   1    0.009447   -0.105880    0.057523    11.00000    0.04395    0.03555 =
         0.03366    0.01055    0.00139    0.01736
AFIX  43
H14   5   -0.067278   -0.119635    0.027503    11.00000   -1.20000
AFIX   0
S2    3    0.123686   -0.008448    0.070684    11.00000    0.05169    0.03102 =
         0.03464    0.01418    0.00695    0.01991
C43   1   -0.120505   -0.313486    0.085278    11.00000    0.03918    0.03972 =
         0.03302    0.01250   -0.00355    0.01080
AFIX  43
H15   5   -0.185855   -0.311002    0.052234    11.00000   -1.20000
AFIX   0
S3    3   -0.123929   -0.401002    0.123600    11.00000    0.03231    0.03415 =
         0.04406    0.01283   -0.00443    0.00409
C44   1   -0.091806   -0.153186    0.264034    11.00000    0.03423    0.03077 =
         0.03991    0.00768    0.00898    0.00461
AFIX  43
H16   5   -0.173510   -0.192811    0.251169    11.00000   -1.20000
AFIX   0
S4    3    0.028467   -0.171720    0.313846    11.00000    0.03833    0.02854 =
         0.04558    0.01174    0.00982    0.00576
S5    3    0.128030    0.074136    0.247604    11.00000    0.03020    0.02480 =
         0.04010    0.00615    0.01006    0.00439
N1    2    0.124255    0.218067    0.144113    11.00000    0.02981    0.02445 =
         0.03925    0.00979    0.00843    0.00780
N2    2    0.391842    0.269370    0.162370    11.00000    0.02820    0.02278 =
         0.04159    0.01104    0.00486    0.00642
AFIX  43
H79   5    0.331866    0.220312    0.158073    11.00000   -1.20000
AFIX   0
N3    2    0.374201    0.101228    0.163612    11.00000    0.03657    0.02640 =
         0.03045    0.00755    0.00635    0.01389
S6    3    0.212145   -0.190402    0.187134    11.00000    0.03375    0.02417 =
         0.03352    0.01047   -0.00078    0.00741
N4    2    0.189204   -0.354812    0.256943    11.00000    0.03186    0.02390 =
         0.03264    0.01202    0.00150    0.00631
N5    2    0.406666   -0.247999    0.356024    11.00000    0.02970    0.02446 =
         0.03656    0.00944   -0.00344    0.00266
AFIX  43
H80   5    0.338761   -0.238835    0.337423    11.00000   -1.20000
AFIX   0
N6    2    0.317825   -0.106012    0.355467    11.00000    0.03289    0.02709 =
         0.03462    0.00572    0.00730    0.00501
C45   1    0.264818    0.428700    0.082713    11.00000    0.02656    0.02393 =
         0.03908    0.01121    0.00417    0.00864
C46   1    0.340575    0.454106    0.035963    11.00000    0.02282    0.02493 =
         0.04041    0.00773   -0.00142    0.00401
AFIX  43
H17   5    0.395188    0.423721    0.026050    11.00000   -1.20000
AFIX   0
C47   1    0.337222    0.523416    0.003625    11.00000    0.02303    0.03287 =
         0.04496    0.01568   -0.00043    0.00106
AFIX  43
H18   5    0.389096    0.539513   -0.028346    11.00000   -1.20000
AFIX   0
C48   1    0.258493    0.569609    0.017610    11.00000    0.03093    0.02940 =
         0.05398    0.01609   -0.00325    0.00453
C49   1    0.185770    0.545290    0.065270    11.00000    0.03862    0.03087 =
         0.05724    0.01090    0.00592    0.01873
AFIX  43
H19   5    0.133273    0.577034    0.075945    11.00000   -1.20000
AFIX   0
C50   1    0.186812    0.476431    0.097899    11.00000    0.03787    0.02899 =
         0.04756    0.01071    0.01025    0.01417
AFIX  43
H20   5    0.135535    0.461281    0.130273    11.00000   -1.20000
AFIX   0
C51   1    0.251260    0.641608   -0.019855    11.00000    0.04504    0.04273 =
         0.08309    0.03207   -0.00120    0.01136
AFIX 137
H41   5    0.255619    0.690895    0.011479    11.00000   -1.50000
H42   5    0.172498    0.623929   -0.051554    11.00000   -1.50000
H43   5    0.320937    0.657054   -0.043974    11.00000   -1.50000
PART 1
AFIX  66
C52A  1    0.689666    0.239913    0.243268    21.00000    0.02467    0.01107 =
         0.02700    0.00236   -0.00052    0.00006
C53A  1    0.787160    0.271880    0.209678    21.00000    0.03042    0.02135 =
         0.04068    0.00705    0.00088    0.00792
AFIX  43
H21   5    0.770280    0.282717    0.165251    21.00000   -1.20000
AFIX  65
C54A  1    0.909352    0.287992    0.241089    21.00000    0.02631    0.02330 =
         0.05308    0.00328    0.00209    0.00111
AFIX  43
H22   5    0.975985    0.309841    0.218131    21.00000   -1.20000
AFIX  65
C55A  1    0.934050    0.272137    0.306091    21.00000    0.02191    0.02761 =
         0.05419    0.01048   -0.00016    0.00249
C56A  1    0.836557    0.240170    0.339682    21.00000    0.03942    0.05258 =
         0.05065    0.02585   -0.00536    0.00692
AFIX  43
H23   5    0.853438    0.229333    0.384109    21.00000   -1.20000
AFIX  65
C57A  1    0.714364    0.224057    0.308272    21.00000    0.03539    0.05374 =
         0.04579    0.01961    0.00384    0.00882
AFIX  43
H24   5    0.647732    0.202209    0.331230    21.00000   -1.20000
AFIX   0
C58A  1    1.069751    0.284792    0.339873    21.00000    0.03685    0.04958 =
         0.08408    0.02626   -0.00981    0.00714
AFIX 137
H44   5    1.104537    0.340589    0.367665    21.00000   -1.50000
H45   5    1.120327    0.281791    0.305651    21.00000   -1.50000
H46   5    1.070016    0.239980    0.367620    21.00000   -1.50000
PART 2
AFIX  66
C52B  1    0.699029    0.257820    0.258688   -21.00000    0.02543    0.02054 =
         0.03314   -0.00623    0.00006    0.00509
C53B  1    0.724308    0.314665    0.316813   -21.00000    0.03514    0.04970 =
         0.03631   -0.00376    0.00263    0.01514
AFIX  43
H25   5    0.661944    0.336709    0.328814   -21.00000   -1.20000
AFIX  65
C54B  1    0.840835    0.339255    0.357379   -21.00000    0.04034    0.05815 =
         0.03559   -0.00202   -0.00387    0.00984
AFIX  43
H26   5    0.858112    0.378106    0.397105   -21.00000   -1.20000
AFIX  65
C55B  1    0.932084    0.307001    0.339820   -21.00000    0.03386    0.03078 =
         0.03752    0.01283   -0.01274    0.00504
C56B  1    0.906806    0.250156    0.281695   -21.00000    0.02889    0.02944 =
         0.08573   -0.00354    0.00995    0.00954
AFIX  43
H27   5    0.969171    0.228112    0.269694   -21.00000   -1.20000
AFIX  65
C57B  1    0.790280    0.225565    0.241128   -21.00000    0.03206    0.03519 =
         0.06002   -0.01281    0.00356    0.01125
AFIX  43
H28   5    0.773004    0.186715    0.201402   -21.00000   -1.20000
AFIX   0
C58B  1    1.059604    0.333093    0.384532   -21.00000    0.02306    0.06398 =
         0.05689    0.01604   -0.00807    0.00016
AFIX 137
H47   5    1.120926    0.324366    0.358387   -21.00000   -1.50000
H48   5    1.055619    0.298345    0.420705   -21.00000   -1.50000
H49   5    1.084225    0.393337    0.403240   -21.00000   -1.50000
PART 0
AFIX   0
C59   1    0.352524   -0.485127    0.352026    11.00000    0.03713    0.02587 =
         0.04181    0.01226   -0.00201    0.00602
C60   1    0.355170   -0.547044    0.302680    11.00000    0.05881    0.04348 =
         0.04673    0.02110    0.00881    0.01926
AFIX  43
H29   5    0.343146   -0.538586    0.257380    11.00000   -1.20000
AFIX   0
C61   1    0.375070   -0.620352    0.319073    11.00000    0.07215    0.04134 =
         0.06009    0.01638    0.01659    0.03088
AFIX  43
H30   5    0.379521   -0.661131    0.284855    11.00000   -1.20000
AFIX   0
C62   1    0.388983   -0.636549    0.385001    11.00000    0.04385    0.03408 =
         0.05881    0.01502   -0.00483    0.00942
C63   1    0.387816   -0.574976    0.433034    11.00000    0.05326    0.02899 =
         0.04312    0.01263   -0.02159    0.00101
AFIX  43
H31   5    0.398741   -0.584008    0.478226    11.00000   -1.20000
AFIX   0
C64   1    0.371125   -0.499507    0.417779    11.00000    0.05102    0.02814 =
         0.04323    0.00730   -0.01959    0.00323
AFIX  43
H32   5    0.372400   -0.457289    0.452493    11.00000   -1.20000
AFIX   0
C65   1    0.402860   -0.720377    0.401767    11.00000    0.07552    0.04101 =
         0.06940    0.02291   -0.00058    0.02676
AFIX 137
H50   5    0.320295   -0.762016    0.399639    11.00000   -1.50000
H51   5    0.451260   -0.711571    0.446730    11.00000   -1.50000
H52   5    0.445986   -0.741669    0.369759    11.00000   -1.50000
PART 3
AFIX  66
C66A  1    0.670702   -0.037173    0.417042    31.00000    0.04027    0.03109 =
         0.03096    0.00942    0.01760    0.00630
C67A  1    0.704600    0.019463    0.475835    31.00000    0.05091    0.03431 =
         0.03563   -0.00596    0.01378   -0.01399
AFIX  43
H33   5    0.644221    0.021539    0.502590    31.00000   -1.20000
AFIX  65
C68A  1    0.826842    0.073062    0.495481    31.00000    0.05880    0.03906 =
         0.03143   -0.00565    0.01086   -0.01532
AFIX  43
H34   5    0.850009    0.111770    0.535663    31.00000   -1.20000
AFIX  65
C69A  1    0.915187    0.070025    0.456334    31.00000    0.03621    0.03232 =
         0.03795    0.00764   -0.00958   -0.00648
C70A  1    0.881291    0.013389    0.397541    31.00000    0.02678    0.04073 =
         0.04526    0.00479    0.00782    0.00327
AFIX  43
H35   5    0.941671    0.011314    0.370786    31.00000   -1.20000
AFIX  65
C71A  1    0.759049   -0.040210    0.377894    31.00000    0.03301    0.03341 =
         0.02940    0.00158    0.00166    0.01181
AFIX  43
H36   5    0.735883   -0.078918    0.337712    31.00000   -1.20000
AFIX   0
C72A  1    1.050674    0.130242    0.481460    31.00000    0.03572    0.04666 =
         0.05807   -0.00481   -0.00775   -0.02016
AFIX 137
H53   5    1.099215    0.099485    0.505587    31.00000   -1.50000
H54   5    1.049906    0.179425    0.511238    31.00000   -1.50000
H55   5    1.088439    0.149834    0.443416    31.00000   -1.50000
PART 4
AFIX  66
C66B  1    0.668072   -0.039680    0.411374   -31.00000    0.02442    0.02074 =
         0.03269   -0.00122   -0.01475   -0.00010
C67B  1    0.714970   -0.010080    0.478485   -31.00000    0.04466    0.04348 =
         0.03684    0.00059    0.01226   -0.01526
AFIX  43
H37   5    0.663378   -0.026183    0.510579   -31.00000   -1.20000
AFIX  65
C68B  1    0.837355    0.043082    0.498637   -31.00000    0.06139    0.04053 =
         0.03812   -0.00319   -0.00403   -0.02101
AFIX  43
H38   5    0.869407    0.063313    0.544505   -31.00000   -1.20000
AFIX  65
C69B  1    0.912842    0.066644    0.451679   -31.00000    0.03885    0.03842 =
         0.04978    0.01099    0.01065    0.00212
C70B  1    0.865945    0.037044    0.384567   -31.00000    0.04401    0.03470 =
         0.04377   -0.00124    0.01088    0.00691
AFIX  43
H39   5    0.917538    0.053148    0.352474   -31.00000   -1.20000
AFIX  65
C71B  1    0.743561   -0.016118    0.364414   -31.00000    0.04084    0.04490 =
         0.03710    0.00628    0.00331    0.01377
AFIX  43
H40   5    0.711509   -0.036348    0.318547   -31.00000   -1.20000
AFIX   0
C72B  1    1.045611    0.118916    0.468892   -31.00000    0.06301    0.04230 =
         0.06439    0.02403   -0.00913    0.00864
AFIX 137
H56   5    1.096106    0.087484    0.450774   -31.00000   -1.50000
H57   5    1.070666    0.131772    0.517373   -31.00000   -1.50000
H58   5    1.058175    0.172183    0.449953   -31.00000   -1.50000
PART 0
AFIX   0
C73   1    0.443864    0.709536    0.176220    11.00000    0.03882    0.03386 =
         0.05792    0.00809    0.00676    0.00902
AFIX  23
H59   5    0.360448    0.700955    0.187809    11.00000   -1.20000
H60   5    0.437566    0.714679    0.128267    11.00000   -1.20000
AFIX   0
C74   1    0.483649    0.633633    0.189188    11.00000    0.04954    0.03074 =
         0.07026    0.00979    0.01271    0.00585
AFIX  23
H61   5    0.417302    0.580949    0.166650    11.00000   -1.20000
H62   5    0.495946    0.630786    0.237550    11.00000   -1.20000
AFIX   0
CL1   4    0.551373    0.805787    0.223553    11.00000    0.04776    0.02806 =
         0.05111    0.00804    0.01020    0.00582
CL2   4    0.625467    0.640038    0.159575    11.00000    0.04484    0.03918 =
         0.09583    0.01401    0.02122    0.01405
C75   1    0.515109    0.134651    0.032719    11.00000    0.08007    0.04602 =
         0.04432    0.01826    0.01878    0.02705
AFIX  23
H63   5    0.506758    0.087704    0.059852    11.00000   -1.20000
H64   5    0.573843    0.187303    0.060136    11.00000   -1.20000
AFIX   0
C76   1    0.390981    0.146265    0.014638    11.00000    0.06543    0.03847 =
         0.04310    0.00781    0.01145    0.00429
AFIX  23
H65   5    0.356861    0.152977    0.055702    11.00000   -1.20000
H66   5    0.333434    0.094247   -0.014093    11.00000   -1.20000
AFIX   0
CL3   4    0.576831    0.111242   -0.038185    11.00000    0.12050    0.06108 =
         0.06792    0.01971    0.05417    0.04292
CL4   4    0.396131    0.235468   -0.027364    11.00000    0.06730    0.06620 =
         0.05915    0.02875    0.01759    0.03051
C77   1    0.808357    0.248213    0.526744    11.00000    0.18021    0.32932 =
         0.22975    0.05691   -0.00085    0.10379
AFIX  23
H81   5    0.788543    0.198710    0.551311    11.00000   -1.20000
H82   5    0.856506    0.236689    0.492735    11.00000   -1.20000
AFIX   0
C78   1    0.887776    0.326180    0.574505    11.00000    0.15031    0.17646 =
         0.14154    0.09526    0.07854    0.08272
AFIX  23
H83   5    0.970151    0.319825    0.589096    11.00000   -1.20000
H84   5    0.848769    0.328853    0.614318    11.00000   -1.20000
AFIX   0
CL5   4    0.680671    0.257515    0.490095    11.00000    0.17920    0.27376 =
         0.09495    0.03626    0.03356    0.07321
CL6   4    0.910421    0.422236    0.542923    11.00000    0.28756    0.24974 =
         0.23265   -0.01043   -0.05098    0.07458
C79   1    1.198703    0.361751    0.644174    11.00000    0.21441    0.35604 =
         0.29129    0.13296    0.01840    0.09109
AFIX  23
H85   5    1.115415    0.318140    0.637965    11.00000   -1.20000
H86   5    1.261266    0.333125    0.655636    11.00000   -1.20000
AFIX   0
C80   1    1.210634    0.429693    0.703966    11.00000    0.15481    0.05232 =
         0.03442    0.01443    0.00218    0.02255
AFIX  23
H87   5    1.287371    0.436768    0.736101    11.00000   -1.20000
H88   5    1.138859    0.409438    0.726793    11.00000   -1.20000
AFIX   0
CL7   4    1.219191    0.401918    0.564493    11.00000    0.37335    1.29466 =
         0.33092    0.35518    0.19565    0.56326
CL8   4    1.216189    0.536344    0.677315    11.00000    0.63529    1.02513 =
         0.91339   -0.09052   -0.25225   -0.15936

HKLF 4 1 1 0 0 0 1 0 0 0 1

REM
REM R1 =  0.0921 for   11045 Fo > 4sig(Fo)  and  0.1178 for all   16097 data
REM    987 parameters refined using    264 restraints

END

WGHT      0.1864      4.1297

REM Instructions for potential hydrogen bonds
HTAB C12 Cl2
HTAB C13 Cl8_$10
HTAB C18 S6
HTAB C18 Cl1_$1
HTAB C32 Cl7_$11
HTAB C38 S5
HTAB C41 Cl1_$3
HTAB N2 N1
HTAB N2 N3
HTAB N5 N4
HTAB N5 N6
HTAB C73 S6_$4
HTAB C73 N4_$4
HTAB C76 N2
HTAB C76 N3
HTAB C76 S1_$5
HTAB C78 Cl7
HTAB C79 S4_$2
HTAB C80 Cl2_$10

REM Highest difference peak  1.826,  deepest hole -1.851,  1-sigma level  0.127
Q1    1   1.1857  0.3484  0.5480  11.00000  0.05    1.83
Q2    1   1.2840  0.4477  0.6812  11.00000  0.05    1.47
Q3    1   1.2808  0.4923  0.5772  11.00000  0.05    1.31
Q4    1   0.6210  0.6285  0.2375  11.00000  0.05    1.28
Q5    1   1.1688  0.3541  0.6714  11.00000  0.05    1.19
Q6    1   1.2786  0.4746  0.6109  11.00000  0.05    1.18
Q7    1   1.1813  0.4393  0.7077  11.00000  0.05    1.16
Q8    1   0.7215  0.3723  0.4910  11.00000  0.05    1.13
Q9    1   0.7680  0.3955  0.4461  11.00000  0.05    1.09
Q10   1   0.6135  0.0945  0.0080  11.00000  0.05    0.96
Q11   1   0.7811  0.3255  0.5179  11.00000  0.05    0.86
Q12   1   0.9746  0.4452  0.4903  11.00000  0.05    0.85
Q13   1   1.0245  0.3700  0.5075  11.00000  0.05    0.80
Q14   1   0.9995  0.3912  0.4723  11.00000  0.05    0.78
Q15   1   0.1415  0.1386  0.3053  11.00000  0.05    0.73
Q16   1   0.7464  0.2206  0.4379  11.00000  0.05    0.64
Q17   1   1.0067  0.3017  0.5372  11.00000  0.05    0.61
Q18   1   0.3118 -0.2263  0.1357  11.00000  0.05    0.61
Q19   1   0.3075  0.1955 -0.0094  11.00000  0.05    0.60
Q20   1   1.0905  0.3866  0.5317  11.00000  0.05    0.60
;
_shelx_res_checksum              24694
