# Electronic Supplementary Material (ESI) for Organic & Biomolecular Chemistry.
# This journal is  The Royal Society of Chemistry 2019

####################################################################### 
# 
# This file contains crystal structure data downloaded from the 
# Cambridge Structural Database (CSD) hosted by the Cambridge 
# Crystallographic Data Centre (CCDC).
# 
# Full information about CCDC data access policies and citation 
# guidelines are available at http://www.ccdc.cam.ac.uk/access/V1 
# 
# Audit and citation data items may have been added by the CCDC. 
# Please retain this information to preserve the provenance of 
# this file and to allow appropriate attribution of the data. 
# 
#######################################################################

data_mo_180912LT_0m_b
_database_code_depnum_ccdc_archive 'CCDC 1882293'
loop_
_audit_author_name
_audit_author_address
'Pei-Lin Chen'
;NTHU
Taiwan
;
_audit_update_record             
;
2018-11-30 deposited with the CCDC.	2019-02-15 downloaded from the CCDC.
;

_audit_creation_method           SHELXL-2014/6
_chemical_name_systematic        
(Z)-5-(3,4-dimethoxybenzylidene)-2-((2-oxo-2-phenylethyl)selanyl)-3-phenyl-3,5-dihydro-4H-imidazol-4-one
_chemical_name_common            ?
_chemical_melting_point          ?
_chemical_formula_moiety         ?
_chemical_formula_sum            'C26 H22 N2 O4 Se'
_chemical_formula_weight         505.41

loop_
_atom_type_symbol
_atom_type_description
_atom_type_scat_dispersion_real
_atom_type_scat_dispersion_imag
_atom_type_scat_source
C C 0.0033 0.0016 'International Tables Vol C Tables 4.2.6.8 and 6.1.1.4'
H H 0.0000 0.0000 'International Tables Vol C Tables 4.2.6.8 and 6.1.1.4'
N N 0.0061 0.0033 'International Tables Vol C Tables 4.2.6.8 and 6.1.1.4'
O O 0.0106 0.0060 'International Tables Vol C Tables 4.2.6.8 and 6.1.1.4'
Se Se -0.0929 2.2259 'International Tables Vol C Tables 4.2.6.8 and 6.1.1.4'

_space_group_crystal_system      monoclinic
_space_group_IT_number           4
_space_group_name_H-M_alt        'P 21'
_space_group_name_Hall           'P 2yb'

_shelx_space_group_comment       
;
The symmetry employed for this shelxl refinement is uniquely defined
by the following loop, which should always be used as a source of
symmetry information in preference to the above space-group names.
They are only intended as comments.
;

loop_
_space_group_symop_operation_xyz
'x, y, z'
'-x, y+1/2, -z'

_cell_length_a                   5.0331(3)
_cell_length_b                   12.9922(8)
_cell_length_c                   17.1983(11)
_cell_angle_alpha                90
_cell_angle_beta                 93.403(2)
_cell_angle_gamma                90
_cell_volume                     1122.63(12)
_cell_formula_units_Z            2
_cell_measurement_temperature    100(2)
_cell_measurement_reflns_used    7303
_cell_measurement_theta_min      2.3726
_cell_measurement_theta_max      26.3590

_exptl_crystal_description       columnar
_exptl_crystal_colour            yellow
_exptl_crystal_density_meas      'not measured'
_exptl_crystal_density_method    'not measured'
_exptl_crystal_density_diffrn    1.495
_exptl_crystal_F_000             516
_exptl_transmission_factor_min   ?
_exptl_transmission_factor_max   ?
_exptl_crystal_size_max          0.20
_exptl_crystal_size_mid          0.10
_exptl_crystal_size_min          0.09
_exptl_absorpt_coefficient_mu    1.709
_shelx_estimated_absorpt_T_min   ?
_shelx_estimated_absorpt_T_max   ?
_exptl_absorpt_correction_type   multi-scan
_exptl_absorpt_correction_T_min  0.6698
_exptl_absorpt_correction_T_max  0.7454
_exptl_absorpt_process_details   'SADABS V2014/4 (Bruker AXS Inc.)'
_exptl_absorpt_special_details   ?
_diffrn_ambient_temperature      100(2)
_diffrn_radiation_wavelength     0.71073
_diffrn_radiation_type           MoK\a
_diffrn_source                   ?
_diffrn_measurement_device_type  'Bruker APEX-II CCD'
_diffrn_measurement_method       '\f and \w scans'
_diffrn_detector_area_resol_mean 8.3333
_diffrn_reflns_number            19872
_diffrn_reflns_av_unetI/netI     0.0553
_diffrn_reflns_av_R_equivalents  0.0465
_diffrn_reflns_limit_h_min       -6
_diffrn_reflns_limit_h_max       5
_diffrn_reflns_limit_k_min       -16
_diffrn_reflns_limit_k_max       16
_diffrn_reflns_limit_l_min       -21
_diffrn_reflns_limit_l_max       21
_diffrn_reflns_theta_min         1.966
_diffrn_reflns_theta_max         26.482
_diffrn_reflns_theta_full        25.242
_diffrn_measured_fraction_theta_max 0.995
_diffrn_measured_fraction_theta_full 0.999
_diffrn_reflns_Laue_measured_fraction_max 0.995
_diffrn_reflns_Laue_measured_fraction_full 0.999
_diffrn_reflns_point_group_measured_fraction_max 0.989
_diffrn_reflns_point_group_measured_fraction_full 0.998
_reflns_number_total             4603
_reflns_number_gt                4117
_reflns_threshold_expression     'I > 2\s(I)'
_reflns_Friedel_coverage         0.900
_reflns_Friedel_fraction_max     0.982
_reflns_Friedel_fraction_full    0.996

_reflns_special_details          
;
 Reflections were merged by SHELXL according to the crystal
 class for the calculation of statistics and refinement.
 
 _reflns_Friedel_fraction is defined as the number of unique
 Friedel pairs measured divided by the number that would be
 possible theoretically, ignoring centric projections and
 systematic absences.
;

_computing_data_collection       'Bruker APEX2'
_computing_cell_refinement       'SAINT V8.34A (Bruker AXS Inc., 2013)'
_computing_data_reduction        'SAINT V8.34A (Bruker AXS Inc., 2013)'
_computing_structure_solution    ?
_computing_structure_refinement  'SHELXL-2014/6 (Sheldrick, 2014)'
_computing_molecular_graphics    'Bruker SHELXTL'
_computing_publication_material  'Bruker SHELXTL'
_refine_special_details          ?
_refine_ls_structure_factor_coef Fsqd
_refine_ls_matrix_type           full
_refine_ls_weighting_scheme      calc
_refine_ls_weighting_details     
'w=1/[\s^2^(Fo^2^)+(0.0192P)^2^+0.0195P] where P=(Fo^2^+2Fc^2^)/3'
_atom_sites_solution_primary     ?
_atom_sites_solution_secondary   ?
_atom_sites_solution_hydrogens   geom
_refine_ls_hydrogen_treatment    constr
_refine_ls_extinction_method     none
_refine_ls_extinction_coef       .
_refine_ls_abs_structure_details 
;
 Flack x determined using 1749 quotients [(I+)-(I-)]/[(I+)+(I-)]
 (Parsons, Flack and Wagner, Acta Cryst. B69 (2013) 249-259).
;
_refine_ls_abs_structure_Flack   0.031(8)
_chemical_absolute_configuration rm
_refine_ls_number_reflns         4603
_refine_ls_number_parameters     355
_refine_ls_number_restraints     217
_refine_ls_R_factor_all          0.0394
_refine_ls_R_factor_gt           0.0335
_refine_ls_wR_factor_ref         0.0658
_refine_ls_wR_factor_gt          0.0644
_refine_ls_goodness_of_fit_ref   1.077
_refine_ls_restrained_S_all      1.058
_refine_ls_shift/su_max          0.001
_refine_ls_shift/su_mean         0.000

loop_
_atom_site_label
_atom_site_type_symbol
_atom_site_fract_x
_atom_site_fract_y
_atom_site_fract_z
_atom_site_U_iso_or_equiv
_atom_site_adp_type
_atom_site_occupancy
_atom_site_site_symmetry_order
_atom_site_calc_flag
_atom_site_refinement_flags_posn
_atom_site_refinement_flags_adp
_atom_site_refinement_flags_occupancy
_atom_site_disorder_assembly
_atom_site_disorder_group
Se1 Se 0.22581(7) 0.28146(5) 0.74716(3) 0.02848(13) Uani 1 1 d . . . . .
O1 O 0.5717(5) 0.7873(3) 0.66052(19) 0.0436(8) Uani 1 1 d . . . . .
O2 O 0.9129(7) 0.9253(2) 0.7034(2) 0.0468(9) Uani 1 1 d . . . . .
O3 O 0.9792(8) 0.3516(3) 0.9557(2) 0.0467(9) Uani 1 1 d . . . . .
O4 O -0.1765(5) 0.2774(4) 0.62639(17) 0.0395(7) Uani 1 1 d . . . . .
N1 N 0.5893(7) 0.4427(2) 0.7911(2) 0.0236(9) Uani 1 1 d . . . . .
N2 N 0.6314(6) 0.3014(3) 0.8683(2) 0.0237(10) Uani 1 1 d . . . . .
C1 C 0.3753(9) 0.7127(4) 0.6358(3) 0.0428(14) Uani 1 1 d . . . . .
H1A H 0.4634 0.6516 0.6159 0.064 Uiso 1 1 calc R U . . .
H1B H 0.2563 0.7421 0.5944 0.064 Uiso 1 1 calc R U . . .
H1C H 0.2719 0.6932 0.6800 0.064 Uiso 1 1 calc R U . . .
C2 C 1.1139(13) 1.0020(4) 0.7223(3) 0.0631(19) Uani 1 1 d . . . . .
H2A H 1.1099 1.0205 0.7775 0.095 Uiso 1 1 calc R U . . .
H2B H 1.0787 1.0633 0.6902 0.095 Uiso 1 1 calc R U . . .
H2C H 1.2895 0.9742 0.7121 0.095 Uiso 1 1 calc R U . . .
C3 C 0.7445(9) 0.7592(3) 0.7203(3) 0.0330(12) Uani 1 1 d . . . . .
C4 C 0.9313(11) 0.8357(3) 0.7453(3) 0.0351(12) Uani 1 1 d . . . . .
C5 C 1.1113(12) 0.8159(3) 0.8064(3) 0.0471(15) Uani 1 1 d . . . . .
H5 H 1.2347 0.8676 0.8236 0.057 Uiso 1 1 calc R U . . .
C6 C 1.1145(12) 0.7203(4) 0.8434(3) 0.0440(15) Uani 1 1 d . . . . .
H6 H 1.2399 0.7077 0.8858 0.053 Uiso 1 1 calc R U . . .
C7 C 0.9370(9) 0.6435(3) 0.8191(3) 0.0298(11) Uani 1 1 d . . . . .
C8 C 0.7524(8) 0.6639(3) 0.7577(3) 0.0284(11) Uani 1 1 d . . . . .
H8 H 0.6291 0.6120 0.7409 0.034 Uiso 1 1 calc R U . . .
C9 C 0.9474(9) 0.5456(3) 0.8602(3) 0.0329(11) Uani 1 1 d . . . . .
H9 H 1.0810 0.5407 0.9014 0.039 Uiso 1 1 calc R U . . .
C10 C 0.7949(10) 0.4604(3) 0.8484(3) 0.0265(10) Uani 1 1 d . . . . .
C11 C 0.8293(10) 0.3685(3) 0.8995(3) 0.0307(11) Uani 1 1 d . . . . .
C13 C 0.5027(8) 0.3504(3) 0.8053(3) 0.0253(10) Uani 1 1 d . . . . .
C14 C 0.1362(9) 0.3979(3) 0.6791(3) 0.0266(10) Uani 1 1 d . . . . .
H14A H 0.0812 0.4576 0.7102 0.032 Uiso 1 1 calc R U . . .
H14B H 0.2925 0.4183 0.6503 0.032 Uiso 1 1 calc R U . . .
C15 C -0.0877(8) 0.3649(4) 0.6234(3) 0.0277(11) Uani 1 1 d . . . . .
C16 C -0.1966(9) 0.4394(3) 0.5642(3) 0.0295(11) Uani 1 1 d . . . . .
C17 C -0.4112(9) 0.4125(4) 0.5137(3) 0.0375(12) Uani 1 1 d . . . . .
H17 H -0.4885 0.3462 0.5176 0.045 Uiso 1 1 calc R U . . .
C18 C -0.5128(11) 0.4797(4) 0.4585(3) 0.0471(14) Uani 1 1 d . . . . .
H18 H -0.6603 0.4597 0.4249 0.057 Uiso 1 1 calc R U . . .
C19 C -0.4033(10) 0.5769(4) 0.4509(3) 0.0447(13) Uani 1 1 d . . . . .
H19 H -0.4761 0.6235 0.4128 0.054 Uiso 1 1 calc R U . . .
C20 C -0.1877(11) 0.6053(4) 0.4994(3) 0.0462(14) Uani 1 1 d . . . . .
H20 H -0.1088 0.6712 0.4942 0.055 Uiso 1 1 calc R U . . .
C21 C -0.0859(10) 0.5370(4) 0.5561(3) 0.0374(12) Uani 1 1 d . . . . .
H21 H 0.0613 0.5572 0.5898 0.045 Uiso 1 1 calc R U . . .
C22 C 0.597(5) 0.1953(12) 0.9015(12) 0.019(3) Uani 0.506(5) 1 d D U P A 1
C23 C 0.3565(18) 0.1683(6) 0.9277(5) 0.0221(17) Uani 0.506(5) 1 d D U P A 1
H23 H 0.2182 0.2177 0.9300 0.027 Uiso 0.506(5) 1 calc R U P A 1
C24 C 0.3158(17) 0.0663(6) 0.9513(5) 0.0261(18) Uani 0.506(5) 1 d D U P A 1
H24 H 0.1457 0.0452 0.9665 0.031 Uiso 0.506(5) 1 calc R U P A 1
C25 C 0.522(4) -0.0027(12) 0.9524(10) 0.025(2) Uani 0.506(5) 1 d D U P A 1
H25 H 0.4948 -0.0709 0.9702 0.030 Uiso 0.506(5) 1 calc R U P A 1
C26 C 0.7681(17) 0.0251(6) 0.9282(5) 0.0260(18) Uani 0.506(5) 1 d D U P A 1
H26 H 0.9075 -0.0242 0.9285 0.031 Uiso 0.506(5) 1 calc R U P A 1
C27 C 0.8133(15) 0.1258(6) 0.9031(5) 0.0204(17) Uani 0.506(5) 1 d D U P A 1
H27 H 0.9834 0.1467 0.8878 0.024 Uiso 0.506(5) 1 calc R U P A 1
C22' C 0.590(5) 0.2005(13) 0.8877(13) 0.020(3) Uani 0.494(5) 1 d D U P A 2
C23' C 0.5077(17) 0.1806(6) 0.9603(5) 0.0210(18) Uani 0.494(5) 1 d D U P A 2
H23' H 0.4599 0.2353 0.9933 0.025 Uiso 0.494(5) 1 calc R U P A 2
C24' C 0.4945(17) 0.0781(6) 0.9855(6) 0.0261(18) Uani 0.494(5) 1 d D U P A 2
H24' H 0.4470 0.0634 1.0370 0.031 Uiso 0.494(5) 1 calc R U P A 2
C25' C 0.551(4) -0.0019(12) 0.9355(11) 0.026(3) Uani 0.494(5) 1 d D U P A 2
H25' H 0.5397 -0.0713 0.9524 0.031 Uiso 0.494(5) 1 calc R U P A 2
C26' C 0.6217(16) 0.0197(6) 0.8619(5) 0.0274(18) Uani 0.494(5) 1 d D U P A 2
H26' H 0.6584 -0.0355 0.8280 0.033 Uiso 0.494(5) 1 calc R U P A 2
C27' C 0.6416(18) 0.1193(6) 0.8357(5) 0.0226(19) Uani 0.494(5) 1 d D U P A 2
H27' H 0.6887 0.1332 0.7841 0.027 Uiso 0.494(5) 1 calc R U P A 2

loop_
_atom_site_aniso_label
_atom_site_aniso_U_11
_atom_site_aniso_U_22
_atom_site_aniso_U_33
_atom_site_aniso_U_23
_atom_site_aniso_U_13
_atom_site_aniso_U_12
Se1 0.0200(2) 0.01532(15) 0.0505(3) 0.0001(2) 0.00492(17) -0.0050(3)
O1 0.0338(15) 0.0246(15) 0.073(2) 0.009(2) 0.0041(16) -0.007(2)
O2 0.076(3) 0.0179(15) 0.049(2) -0.0034(15) 0.0213(19) -0.0151(16)
O3 0.082(3) 0.0330(17) 0.024(2) -0.0012(15) -0.006(2) -0.0256(18)
O4 0.0384(15) 0.0295(15) 0.050(2) -0.006(2) 0.0004(14) -0.012(2)
N1 0.023(2) 0.0159(16) 0.034(2) -0.0047(16) 0.0130(18) -0.0065(14)
N2 0.0230(17) 0.014(2) 0.036(2) -0.0031(16) 0.0111(15) -0.0039(14)
C1 0.029(3) 0.034(3) 0.066(4) 0.009(3) 0.008(3) -0.004(2)
C2 0.129(6) 0.029(3) 0.034(3) -0.010(2) 0.026(3) -0.044(3)
C3 0.035(2) 0.019(3) 0.046(3) -0.0056(18) 0.020(2) -0.0035(18)
C4 0.059(3) 0.018(2) 0.030(3) -0.0098(19) 0.022(3) -0.012(2)
C5 0.085(4) 0.030(2) 0.028(3) -0.012(2) 0.011(3) -0.036(3)
C6 0.075(4) 0.037(3) 0.020(3) -0.007(2) 0.003(3) -0.030(3)
C7 0.043(3) 0.022(2) 0.026(3) -0.0093(19) 0.016(2) -0.015(2)
C8 0.031(3) 0.019(2) 0.037(3) -0.009(2) 0.015(2) -0.0105(18)
C9 0.049(3) 0.029(2) 0.021(3) -0.0089(19) 0.010(2) -0.020(2)
C10 0.036(3) 0.021(2) 0.023(3) -0.0074(18) 0.012(2) -0.010(2)
C11 0.048(3) 0.022(2) 0.023(3) -0.0090(19) 0.013(2) -0.011(2)
C13 0.017(2) 0.0144(18) 0.045(3) -0.0046(19) 0.012(2) 0.0000(16)
C14 0.030(2) 0.0190(19) 0.031(3) -0.0013(18) 0.010(2) -0.0068(18)
C15 0.025(2) 0.028(2) 0.031(3) -0.009(2) 0.012(2) -0.003(2)
C16 0.028(2) 0.035(2) 0.027(3) -0.011(2) 0.013(2) -0.002(2)
C17 0.037(3) 0.038(3) 0.038(3) -0.008(2) 0.007(2) 0.000(2)
C18 0.051(3) 0.051(3) 0.039(3) -0.014(3) 0.001(3) 0.006(3)
C19 0.057(3) 0.050(3) 0.028(3) -0.004(2) 0.009(3) 0.019(3)
C20 0.057(3) 0.037(3) 0.046(4) 0.001(2) 0.015(3) 0.000(3)
C21 0.039(3) 0.034(3) 0.039(3) -0.001(2) 0.004(2) -0.005(2)
C22 0.023(4) 0.010(4) 0.023(6) -0.003(4) 0.002(5) -0.001(4)
C23 0.021(4) 0.023(3) 0.023(4) 0.003(3) 0.001(4) 0.000(3)
C24 0.025(4) 0.026(4) 0.027(4) 0.006(3) 0.001(4) -0.009(3)
C25 0.028(5) 0.018(4) 0.028(6) 0.006(4) -0.004(4) -0.008(4)
C26 0.029(4) 0.018(3) 0.031(4) 0.004(3) 0.000(4) 0.004(3)
C27 0.018(3) 0.019(3) 0.024(4) 0.001(3) 0.000(3) -0.002(3)
C22' 0.019(4) 0.017(4) 0.024(6) 0.001(4) 0.007(5) 0.000(4)
C23' 0.016(4) 0.019(3) 0.028(4) 0.002(3) 0.005(4) -0.002(3)
C24' 0.017(4) 0.028(4) 0.033(4) 0.010(3) 0.003(4) -0.006(3)
C25' 0.023(5) 0.014(4) 0.040(6) 0.007(4) -0.004(5) -0.002(4)
C26' 0.022(4) 0.018(3) 0.043(4) -0.003(3) -0.001(4) 0.003(3)
C27' 0.019(4) 0.019(4) 0.030(5) -0.003(3) 0.004(4) -0.001(3)

_geom_special_details            
;
 All esds (except the esd in the dihedral angle between two l.s. planes)
 are estimated using the full covariance matrix.  The cell esds are taken
 into account individually in the estimation of esds in distances, angles
 and torsion angles; correlations between esds in cell parameters are only
 used when they are defined by crystal symmetry.  An approximate (isotropic)
 treatment of cell esds is used for estimating esds involving l.s. planes.
;

loop_
_geom_bond_atom_site_label_1
_geom_bond_atom_site_label_2
_geom_bond_distance
_geom_bond_site_symmetry_2
_geom_bond_publ_flag
Se1 C13 1.892(4) . ?
Se1 C14 1.949(4) . ?
O1 C3 1.357(6) . ?
O1 C1 1.431(6) . ?
O2 C4 1.371(5) . ?
O2 C2 1.443(6) . ?
O3 C11 1.210(6) . ?
O4 C15 1.224(7) . ?
N1 C13 1.304(5) . ?
N1 C10 1.405(6) . ?
N2 C22' 1.372(17) . ?
N2 C13 1.383(6) . ?
N2 C11 1.406(6) . ?
N2 C22 1.506(16) . ?
C1 H1A 0.9800 . ?
C1 H1B 0.9800 . ?
C1 H1C 0.9800 . ?
C2 H2A 0.9800 . ?
C2 H2B 0.9800 . ?
C2 H2C 0.9800 . ?
C3 C8 1.395(6) . ?
C3 C4 1.416(6) . ?
C4 C5 1.370(7) . ?
C5 C6 1.395(6) . ?
C5 H5 0.9500 . ?
C6 C7 1.388(6) . ?
C6 H6 0.9500 . ?
C7 C8 1.389(6) . ?
C7 C9 1.454(6) . ?
C8 H8 0.9500 . ?
C9 C10 1.355(6) . ?
C9 H9 0.9500 . ?
C10 C11 1.487(6) . ?
C14 C15 1.498(6) . ?
C14 H14A 0.9900 . ?
C14 H14B 0.9900 . ?
C15 C16 1.485(7) . ?
C16 C17 1.390(6) . ?
C16 C21 1.395(6) . ?
C17 C18 1.366(7) . ?
C17 H17 0.9500 . ?
C18 C19 1.387(8) . ?
C18 H18 0.9500 . ?
C19 C20 1.379(7) . ?
C19 H19 0.9500 . ?
C20 C21 1.393(7) . ?
C20 H20 0.9500 . ?
C21 H21 0.9500 . ?
C22 C23 1.36(2) . ?
C22 C27 1.414(19) . ?
C23 C24 1.404(10) . ?
C23 H23 0.9500 . ?
C24 C25 1.371(17) . ?
C24 H24 0.9500 . ?
C25 C26 1.378(18) . ?
C25 H25 0.9500 . ?
C26 C27 1.400(10) . ?
C26 H26 0.9500 . ?
C27 H27 0.9500 . ?
C22' C23' 1.363(17) . ?
C22' C27' 1.417(19) . ?
C23' C24' 1.403(10) . ?
C23' H23' 0.9500 . ?
C24' C25' 1.389(17) . ?
C24' H24' 0.9500 . ?
C25' C26' 1.363(16) . ?
C25' H25' 0.9500 . ?
C26' C27' 1.376(11) . ?
C26' H26' 0.9500 . ?
C27' H27' 0.9500 . ?

loop_
_geom_angle_atom_site_label_1
_geom_angle_atom_site_label_2
_geom_angle_atom_site_label_3
_geom_angle
_geom_angle_site_symmetry_1
_geom_angle_site_symmetry_3
_geom_angle_publ_flag
C13 Se1 C14 94.99(18) . . ?
C3 O1 C1 116.4(4) . . ?
C4 O2 C2 116.3(4) . . ?
C13 N1 C10 105.0(4) . . ?
C22' N2 C13 124.0(13) . . ?
C22' N2 C11 127.8(13) . . ?
C13 N2 C11 107.6(3) . . ?
C13 N2 C22 131.2(11) . . ?
C11 N2 C22 121.2(11) . . ?
O1 C1 H1A 109.5 . . ?
O1 C1 H1B 109.5 . . ?
H1A C1 H1B 109.5 . . ?
O1 C1 H1C 109.5 . . ?
H1A C1 H1C 109.5 . . ?
H1B C1 H1C 109.5 . . ?
O2 C2 H2A 109.5 . . ?
O2 C2 H2B 109.5 . . ?
H2A C2 H2B 109.5 . . ?
O2 C2 H2C 109.5 . . ?
H2A C2 H2C 109.5 . . ?
H2B C2 H2C 109.5 . . ?
O1 C3 C8 126.0(4) . . ?
O1 C3 C4 115.2(4) . . ?
C8 C3 C4 118.8(5) . . ?
C5 C4 O2 125.7(4) . . ?
C5 C4 C3 119.9(4) . . ?
O2 C4 C3 114.4(5) . . ?
C4 C5 C6 120.3(4) . . ?
C4 C5 H5 119.8 . . ?
C6 C5 H5 119.8 . . ?
C7 C6 C5 120.9(5) . . ?
C7 C6 H6 119.6 . . ?
C5 C6 H6 119.6 . . ?
C6 C7 C8 118.7(4) . . ?
C6 C7 C9 118.6(5) . . ?
C8 C7 C9 122.7(4) . . ?
C7 C8 C3 121.3(4) . . ?
C7 C8 H8 119.3 . . ?
C3 C8 H8 119.3 . . ?
C10 C9 C7 129.7(5) . . ?
C10 C9 H9 115.2 . . ?
C7 C9 H9 115.2 . . ?
C9 C10 N1 128.7(4) . . ?
C9 C10 C11 121.6(5) . . ?
N1 C10 C11 109.8(4) . . ?
O3 C11 N2 126.0(4) . . ?
O3 C11 C10 131.5(4) . . ?
N2 C11 C10 102.5(4) . . ?
N1 C13 N2 115.1(4) . . ?
N1 C13 Se1 125.4(4) . . ?
N2 C13 Se1 119.5(3) . . ?
C15 C14 Se1 107.5(3) . . ?
C15 C14 H14A 110.2 . . ?
Se1 C14 H14A 110.2 . . ?
C15 C14 H14B 110.2 . . ?
Se1 C14 H14B 110.2 . . ?
H14A C14 H14B 108.5 . . ?
O4 C15 C16 120.9(4) . . ?
O4 C15 C14 120.1(4) . . ?
C16 C15 C14 119.0(4) . . ?
C17 C16 C21 117.8(5) . . ?
C17 C16 C15 120.4(4) . . ?
C21 C16 C15 121.8(4) . . ?
C18 C17 C16 121.2(5) . . ?
C18 C17 H17 119.4 . . ?
C16 C17 H17 119.4 . . ?
C17 C18 C19 120.9(5) . . ?
C17 C18 H18 119.6 . . ?
C19 C18 H18 119.6 . . ?
C20 C19 C18 119.3(5) . . ?
C20 C19 H19 120.4 . . ?
C18 C19 H19 120.4 . . ?
C19 C20 C21 119.8(5) . . ?
C19 C20 H20 120.1 . . ?
C21 C20 H20 120.1 . . ?
C20 C21 C16 121.1(5) . . ?
C20 C21 H21 119.5 . . ?
C16 C21 H21 119.5 . . ?
C23 C22 C27 121.8(12) . . ?
C23 C22 N2 119.1(13) . . ?
C27 C22 N2 119.0(14) . . ?
C22 C23 C24 119.1(9) . . ?
C22 C23 H23 120.4 . . ?
C24 C23 H23 120.4 . . ?
C25 C24 C23 119.9(10) . . ?
C25 C24 H24 120.1 . . ?
C23 C24 H24 120.1 . . ?
C24 C25 C26 121.2(12) . . ?
C24 C25 H25 119.4 . . ?
C26 C25 H25 119.4 . . ?
C25 C26 C27 120.2(9) . . ?
C25 C26 H26 119.9 . . ?
C27 C26 H26 119.9 . . ?
C26 C27 C22 117.6(10) . . ?
C26 C27 H27 121.2 . . ?
C22 C27 H27 121.2 . . ?
C23' C22' N2 117.6(14) . . ?
C23' C22' C27' 120.9(13) . . ?
N2 C22' C27' 121.4(12) . . ?
C22' C23' C24' 119.1(10) . . ?
C22' C23' H23' 120.4 . . ?
C24' C23' H23' 120.4 . . ?
C25' C24' C23' 120.2(10) . . ?
C25' C24' H24' 119.9 . . ?
C23' C24' H24' 119.9 . . ?
C26' C25' C24' 119.7(12) . . ?
C26' C25' H25' 120.1 . . ?
C24' C25' H25' 120.1 . . ?
C25' C26' C27' 121.7(10) . . ?
C25' C26' H26' 119.2 . . ?
C27' C26' H26' 119.2 . . ?
C26' C27' C22' 118.3(10) . . ?
C26' C27' H27' 120.9 . . ?
C22' C27' H27' 120.9 . . ?

_refine_diff_density_max         0.349
_refine_diff_density_min         -0.628
_refine_diff_density_rms         0.049

_shelxl_version_number           2014/6

_shelx_res_file                  
;
TITL mo_180912LT_0m_b.res in P2(1)
CELL  0.71073   5.0331  12.9922  17.1983   90.000   93.403   90.000
ZERR    2.000   0.0003   0.0008   0.0011    0.000    0.002    0.000
LATT -1
SYMM -X, 1/2+Y, -Z
SFAC C  H  N  O  Se
UNIT 52  44  4  8  2
L.S. 4
BOND $H
ACTA
FMAP 2
PLAN 5
DELU 0.01 C22 > C27 C22' > C27'
SIMU 0.01 C22 > C27 C22' > C27'
TEMP -173.500
WGHT    0.019200    0.019500
FVAR       0.63780   0.50573
SE1   5    0.225808    0.281462    0.747163    11.00000    0.01995    0.01532 =
         0.05050    0.00012    0.00492   -0.00504
O1    4    0.571733    0.787262    0.660524    11.00000    0.03378    0.02461 =
         0.07255    0.00866    0.00412   -0.00738
O2    4    0.912921    0.925332    0.703377    11.00000    0.07563    0.01792 =
         0.04883   -0.00343    0.02125   -0.01507
O3    4    0.979244    0.351636    0.955738    11.00000    0.08239    0.03304 =
         0.02354   -0.00117   -0.00552   -0.02560
O4    4   -0.176532    0.277409    0.626389    11.00000    0.03844    0.02952 =
         0.05032   -0.00550    0.00036   -0.01184
N1    3    0.589306    0.442719    0.791119    11.00000    0.02273    0.01594 =
         0.03359   -0.00473    0.01298   -0.00647
N2    3    0.631379    0.301395    0.868264    11.00000    0.02303    0.01360 =
         0.03570   -0.00312    0.01113   -0.00385
C1    1    0.375346    0.712673    0.635762    11.00000    0.02878    0.03383 =
         0.06621    0.00864    0.00762   -0.00419
AFIX 137
H1A   2    0.463391    0.651599    0.615921    11.00000   -1.50000
H1B   2    0.256262    0.742129    0.594430    11.00000   -1.50000
H1C   2    0.271881    0.693207    0.679978    11.00000   -1.50000
AFIX   0
C2    1    1.113861    1.001987    0.722309    11.00000    0.12868    0.02922 =
         0.03376   -0.00993    0.02580   -0.04372
AFIX 137
H2A   2    1.109930    1.020456    0.777476    11.00000   -1.50000
H2B   2    1.078655    1.063337    0.690182    11.00000   -1.50000
H2C   2    1.289488    0.974235    0.712127    11.00000   -1.50000
AFIX   0
C3    1    0.744539    0.759249    0.720338    11.00000    0.03546    0.01938 =
         0.04640   -0.00565    0.02042   -0.00350
C4    1    0.931313    0.835666    0.745340    11.00000    0.05885    0.01816 =
         0.03044   -0.00981    0.02155   -0.01175
C5    1    1.111317    0.815948    0.806385    11.00000    0.08457    0.02993 =
         0.02789   -0.01235    0.01128   -0.03630
AFIX  43
H5    2    1.234658    0.867639    0.823632    11.00000   -1.20000
AFIX   0
C6    1    1.114496    0.720325    0.843384    11.00000    0.07473    0.03744 =
         0.02001   -0.00693    0.00323   -0.02991
AFIX  43
H6    2    1.239885    0.707668    0.885787    11.00000   -1.20000
AFIX   0
C7    1    0.936972    0.643472    0.819075    11.00000    0.04331    0.02156 =
         0.02610   -0.00934    0.01632   -0.01532
C8    1    0.752411    0.663942    0.757743    11.00000    0.03145    0.01850 =
         0.03667   -0.00872    0.01517   -0.01051
AFIX  43
H8    2    0.629130    0.612005    0.740946    11.00000   -1.20000
AFIX   0
C9    1    0.947396    0.545618    0.860166    11.00000    0.04880    0.02937 =
         0.02148   -0.00891    0.01014   -0.01989
AFIX  43
H9    2    1.081037    0.540676    0.901386    11.00000   -1.20000
AFIX   0
C10   1    0.794942    0.460410    0.848447    11.00000    0.03633    0.02093 =
         0.02338   -0.00743    0.01242   -0.01037
C11   1    0.829270    0.368494    0.899548    11.00000    0.04846    0.02206 =
         0.02277   -0.00905    0.01320   -0.01096
C13   1    0.502750    0.350377    0.805344    11.00000    0.01735    0.01439 =
         0.04543   -0.00455    0.01221    0.00002
C14   1    0.136249    0.397942    0.679127    11.00000    0.03043    0.01900 =
         0.03134   -0.00132    0.01049   -0.00679
AFIX  23
H14A  2    0.081218    0.457568    0.710205    11.00000   -1.20000
H14B  2    0.292487    0.418290    0.650313    11.00000   -1.20000
AFIX   0
C15   1   -0.087659    0.364947    0.623359    11.00000    0.02549    0.02791 =
         0.03086   -0.00896    0.01158   -0.00280
C16   1   -0.196609    0.439423    0.564201    11.00000    0.02765    0.03540 =
         0.02690   -0.01083    0.01269   -0.00158
C17   1   -0.411158    0.412506    0.513671    11.00000    0.03705    0.03848 =
         0.03750   -0.00814    0.00737   -0.00015
AFIX  43
H17   2   -0.488546    0.346150    0.517553    11.00000   -1.20000
AFIX   0
C18   1   -0.512768    0.479746    0.458521    11.00000    0.05083    0.05144 =
         0.03876   -0.01355    0.00052    0.00611
AFIX  43
H18   2   -0.660312    0.459659    0.424924    11.00000   -1.20000
AFIX   0
C19   1   -0.403323    0.576946    0.450946    11.00000    0.05712    0.04957 =
         0.02813   -0.00403    0.00881    0.01894
AFIX  43
H19   2   -0.476133    0.623495    0.412773    11.00000   -1.20000
AFIX   0
C20   1   -0.187672    0.605275    0.499431    11.00000    0.05708    0.03688 =
         0.04607    0.00111    0.01456   -0.00023
AFIX  43
H20   2   -0.108783    0.671151    0.494202    11.00000   -1.20000
AFIX   0
C21   1   -0.085878    0.536988    0.556100    11.00000    0.03898    0.03433 =
         0.03911   -0.00088    0.00427   -0.00466
AFIX  43
H21   2    0.061348    0.557185    0.589780    11.00000   -1.20000
AFIX   0
PART 1  21.00
C22   1    0.596725    0.195291    0.901465    21.00000    0.02349    0.01027 =
         0.02287   -0.00310    0.00184   -0.00088
C23   1    0.356494    0.168255    0.927694    21.00000    0.02068    0.02259 =
         0.02297    0.00287    0.00078    0.00025
AFIX  43
H23   2    0.218204    0.217733    0.929990    21.00000   -1.20000
AFIX   0
C24   1    0.315789    0.066333    0.951300    21.00000    0.02477    0.02597 =
         0.02737    0.00628    0.00057   -0.00900
AFIX  43
H24   2    0.145706    0.045224    0.966459    21.00000   -1.20000
AFIX   0
C25   1    0.521968   -0.002670    0.952430    21.00000    0.02837    0.01825 =
         0.02822    0.00587   -0.00434   -0.00828
AFIX  43
H25   2    0.494773   -0.070870    0.970225    21.00000   -1.20000
AFIX   0
C26   1    0.768085    0.025149    0.928201    21.00000    0.02868    0.01830 =
         0.03086    0.00359    0.00041    0.00447
AFIX  43
H26   2    0.907497   -0.024169    0.928507    21.00000   -1.20000
AFIX   0
C27   1    0.813345    0.125808    0.903148    21.00000    0.01766    0.01948 =
         0.02397    0.00062    0.00019   -0.00221
AFIX  43
H27   2    0.983408    0.146700    0.887828    21.00000   -1.20000
AFIX   0
SAME C22  C23  C24  C25  C26  C27
PART 2  -21.00
C22'  1    0.589984    0.200515    0.887716   -21.00000    0.01873    0.01689 =
         0.02378    0.00143    0.00675   -0.00039
C23'  1    0.507675    0.180586    0.960265   -21.00000    0.01574    0.01936 =
         0.02834    0.00182    0.00539   -0.00220
AFIX  43
H23'  2    0.459865    0.235325    0.993289   -21.00000   -1.20000
AFIX   0
C24'  1    0.494489    0.078126    0.985534   -21.00000    0.01713    0.02823 =
         0.03325    0.00954    0.00311   -0.00590
AFIX  43
H24'  2    0.446992    0.063409    1.037007   -21.00000   -1.20000
AFIX   0
C25'  1    0.550721   -0.001868    0.935467   -21.00000    0.02329    0.01444 =
         0.04000    0.00656   -0.00404   -0.00235
AFIX  43
H25'  2    0.539732   -0.071259    0.952394   -21.00000   -1.20000
AFIX   0
C26'  1    0.621729    0.019664    0.861947   -21.00000    0.02186    0.01756 =
         0.04252   -0.00268   -0.00099    0.00305
AFIX  43
H26'  2    0.658441   -0.035501    0.827951   -21.00000   -1.20000
AFIX   0
C27'  1    0.641581    0.119275    0.835726   -21.00000    0.01927    0.01927 =
         0.02951   -0.00316    0.00412   -0.00145
AFIX  43
H27'  2    0.688668    0.133229    0.784095   -21.00000   -1.20000
PART
AFIX   0
HKLF 4

REM  mo_180912LT_0m_b.res in P2(1)
REM R1 =  0.0335 for    4117 Fo > 4sig(Fo)  and  0.0394 for all    4603 data
REM    355 parameters refined using    217 restraints

END

WGHT      0.0190      0.0292

REM Highest difference peak  0.349,  deepest hole -0.628,  1-sigma level  0.049
Q1    1   0.0384  0.2831  0.7646  11.00000  0.05    0.35
Q2    1   0.2269  0.3240  0.7802  11.00000  0.05    0.26
Q3    1   0.2325  0.2389  0.7789  11.00000  0.05    0.24
Q4    1   0.3821  0.2396  0.7210  11.00000  0.05    0.23
Q5    1   1.0562  0.9252  0.7263  11.00000  0.05    0.23
;
_shelx_res_checksum              47519
####################################################################### 
# 
# This file contains crystal structure data downloaded from the 
# Cambridge Structural Database (CSD) hosted by the Cambridge 
# Crystallographic Data Centre (CCDC).
# 
# Full information about CCDC data access policies and citation 
# guidelines are available at http://www.ccdc.cam.ac.uk/access/V1 
# 
# Audit and citation data items may have been added by the CCDC. 
# Please retain this information to preserve the provenance of 
# this file and to allow appropriate attribution of the data. 
# 
#######################################################################

data_181208lt_0m_a
_database_code_depnum_ccdc_archive 'CCDC 1884822'
loop_
_audit_author_name
_audit_author_address
'Pei-Lin Chen'
;NTHU
Taiwan
;
_audit_update_record             
;
2018-12-13 deposited with the CCDC.	2019-02-15 downloaded from the CCDC.
;

_audit_creation_method           SHELXL-2014/6
_chemical_name_systematic        
5-(3,4-dimethoxybenzyl)-2-((2-oxo-2-phenylethyl)thio)-3-phenyl-3,5-dihydro-4H-imidazol-4-one
_chemical_name_common            ?
_chemical_melting_point          ?
_chemical_formula_moiety         ?
_chemical_formula_sum            'C26 H24 N2 O4 S'
_chemical_formula_weight         460.53

loop_
_atom_type_symbol
_atom_type_description
_atom_type_scat_dispersion_real
_atom_type_scat_dispersion_imag
_atom_type_scat_source
C C 0.0033 0.0016 'International Tables Vol C Tables 4.2.6.8 and 6.1.1.4'
H H 0.0000 0.0000 'International Tables Vol C Tables 4.2.6.8 and 6.1.1.4'
N N 0.0061 0.0033 'International Tables Vol C Tables 4.2.6.8 and 6.1.1.4'
O O 0.0106 0.0060 'International Tables Vol C Tables 4.2.6.8 and 6.1.1.4'
S S 0.1246 0.1234 'International Tables Vol C Tables 4.2.6.8 and 6.1.1.4'

_space_group_crystal_system      monoclinic
_space_group_IT_number           14
_space_group_name_H-M_alt        'P 21/c'
_space_group_name_Hall           '-P 2ybc'

_shelx_space_group_comment       
;
The symmetry employed for this shelxl refinement is uniquely defined
by the following loop, which should always be used as a source of
symmetry information in preference to the above space-group names.
They are only intended as comments.
;

loop_
_space_group_symop_operation_xyz
'x, y, z'
'-x, y+1/2, -z+1/2'
'-x, -y, -z'
'x, -y-1/2, z-1/2'

_cell_length_a                   14.9997(15)
_cell_length_b                   8.0616(7)
_cell_length_c                   20.034(2)
_cell_angle_alpha                90
_cell_angle_beta                 107.259(4)
_cell_angle_gamma                90
_cell_volume                     2313.4(4)
_cell_formula_units_Z            4
_cell_measurement_temperature    100(2)
_cell_measurement_reflns_used    4851
_cell_measurement_theta_min      2.8902
_cell_measurement_theta_max      26.1657

_exptl_crystal_description       tabullar
_exptl_crystal_colour            yellow
_exptl_crystal_density_meas      'not measured'
_exptl_crystal_density_method    'not measured'
_exptl_crystal_density_diffrn    1.322
_exptl_crystal_F_000             968
_exptl_transmission_factor_min   ?
_exptl_transmission_factor_max   ?
_exptl_crystal_size_max          0.20
_exptl_crystal_size_mid          0.12
_exptl_crystal_size_min          0.04
_exptl_absorpt_coefficient_mu    0.176
_shelx_estimated_absorpt_T_min   ?
_shelx_estimated_absorpt_T_max   ?
_exptl_absorpt_correction_type   multi-scan
_exptl_absorpt_correction_T_min  0.2965
_exptl_absorpt_correction_T_max  0.7454
_exptl_absorpt_process_details   'SADABS V2014/4 (Bruker AXS Inc.)'
_exptl_absorpt_special_details   ?
_diffrn_ambient_temperature      100(2)
_diffrn_radiation_wavelength     0.71073
_diffrn_radiation_type           MoK\a
_diffrn_source                   ?
_diffrn_measurement_device_type  'Bruker APEX-II CCD'
_diffrn_measurement_method       '\f and \w scans'
_diffrn_detector_area_resol_mean 8.3333
_diffrn_reflns_number            13728
_diffrn_reflns_av_unetI/netI     0.0968
_diffrn_reflns_av_R_equivalents  0.0835
_diffrn_reflns_limit_h_min       -18
_diffrn_reflns_limit_h_max       18
_diffrn_reflns_limit_k_min       -7
_diffrn_reflns_limit_k_max       10
_diffrn_reflns_limit_l_min       -25
_diffrn_reflns_limit_l_max       24
_diffrn_reflns_theta_min         1.422
_diffrn_reflns_theta_max         26.506
_diffrn_reflns_theta_full        25.242
_diffrn_measured_fraction_theta_max 0.992
_diffrn_measured_fraction_theta_full 1.000
_diffrn_reflns_Laue_measured_fraction_max 0.992
_diffrn_reflns_Laue_measured_fraction_full 1.000
_diffrn_reflns_point_group_measured_fraction_max 0.992
_diffrn_reflns_point_group_measured_fraction_full 1.000
_reflns_number_total             4756
_reflns_number_gt                3506
_reflns_threshold_expression     'I > 2\s(I)'
_reflns_Friedel_coverage         0.000
_reflns_Friedel_fraction_max     .
_reflns_Friedel_fraction_full    .

_reflns_special_details          
;
 Reflections were merged by SHELXL according to the crystal
 class for the calculation of statistics and refinement.
 
 _reflns_Friedel_fraction is defined as the number of unique
 Friedel pairs measured divided by the number that would be
 possible theoretically, ignoring centric projections and
 systematic absences.
;

_computing_data_collection       'Bruker APEX2'
_computing_cell_refinement       'SAINT V8.34A (Bruker AXS Inc., 2013)'
_computing_data_reduction        'SAINT V8.34A (Bruker AXS Inc., 2013)'
_computing_structure_solution    ?
_computing_structure_refinement  'SHELXL-2014/6 (Sheldrick, 2014)'
_computing_molecular_graphics    'Bruker SHELXTL'
_computing_publication_material  'Bruker SHELXTL'
_refine_special_details          ?
_refine_ls_structure_factor_coef Fsqd
_refine_ls_matrix_type           full
_refine_ls_weighting_scheme      calc
_refine_ls_weighting_details     
'w=1/[\s^2^(Fo^2^)+(0.1259P)^2^] where P=(Fo^2^+2Fc^2^)/3'
_atom_sites_solution_primary     ?
_atom_sites_solution_secondary   ?
_atom_sites_solution_hydrogens   geom
_refine_ls_hydrogen_treatment    constr
_refine_ls_extinction_method     none
_refine_ls_extinction_coef       .
_refine_ls_number_reflns         4756
_refine_ls_number_parameters     300
_refine_ls_number_restraints     0
_refine_ls_R_factor_all          0.0986
_refine_ls_R_factor_gt           0.0760
_refine_ls_wR_factor_ref         0.2052
_refine_ls_wR_factor_gt          0.1852
_refine_ls_goodness_of_fit_ref   1.010
_refine_ls_restrained_S_all      1.010
_refine_ls_shift/su_max          0.001
_refine_ls_shift/su_mean         0.000

loop_
_atom_site_label
_atom_site_type_symbol
_atom_site_fract_x
_atom_site_fract_y
_atom_site_fract_z
_atom_site_U_iso_or_equiv
_atom_site_adp_type
_atom_site_occupancy
_atom_site_site_symmetry_order
_atom_site_calc_flag
_atom_site_refinement_flags_posn
_atom_site_refinement_flags_adp
_atom_site_refinement_flags_occupancy
_atom_site_disorder_assembly
_atom_site_disorder_group
C1 C 0.42694(19) 0.3016(3) 0.52442(15) 0.0242(6) Uani 1 1 d . . . . .
C2 C 0.46565(17) 0.5252(3) 0.59510(14) 0.0219(6) Uani 1 1 d . . . . .
C3 C 0.53035(18) 0.3047(3) 0.56419(14) 0.0228(6) Uani 1 1 d . . . . .
H3 H 0.5676 0.3073 0.5303 0.027 Uiso 1 1 calc R U . . .
C4 C 0.29447(17) 0.4884(3) 0.52561(15) 0.0230(6) Uani 1 1 d . . . . .
C5 C 0.25158(18) 0.5167(4) 0.45501(14) 0.0265(6) Uani 1 1 d . . . . .
H5 H 0.2857 0.5052 0.4222 0.032 Uiso 1 1 calc R U . . .
C6 C 0.15837(19) 0.5620(4) 0.43319(17) 0.0333(7) Uani 1 1 d . . . . .
H6 H 0.1280 0.5806 0.3850 0.040 Uiso 1 1 calc R U . . .
C7 C 0.10895(19) 0.5803(4) 0.48146(18) 0.0377(8) Uani 1 1 d . . . . .
H7 H 0.0453 0.6135 0.4663 0.045 Uiso 1 1 calc R U . . .
C8 C 0.15234(19) 0.5504(4) 0.55134(17) 0.0374(8) Uani 1 1 d . . . . .
H8 H 0.1181 0.5622 0.5841 0.045 Uiso 1 1 calc R U . . .
C9 C 0.24494(18) 0.5034(4) 0.57422(16) 0.0296(7) Uani 1 1 d . . . . .
H9 H 0.2745 0.4816 0.6223 0.036 Uiso 1 1 calc R U . . .
C10 C 0.56128(17) 0.7552(3) 0.68222(14) 0.0222(6) Uani 1 1 d . . . . .
H10A H 0.6016 0.7456 0.6512 0.027 Uiso 1 1 calc R U . . .
H10B H 0.5646 0.8715 0.6986 0.027 Uiso 1 1 calc R U . . .
C11 C 0.59968(18) 0.6431(3) 0.74485(14) 0.0223(6) Uani 1 1 d . . . . .
C12 C 0.70150(18) 0.6546(3) 0.78264(14) 0.0221(6) Uani 1 1 d . . . . .
C13 C 0.76063(18) 0.7658(4) 0.76272(15) 0.0267(6) Uani 1 1 d . . . . .
H13 H 0.7357 0.8408 0.7253 0.032 Uiso 1 1 calc R U . . .
C14 C 0.85529(19) 0.7666(4) 0.79748(16) 0.0296(7) Uani 1 1 d . . . . .
H14 H 0.8949 0.8437 0.7843 0.036 Uiso 1 1 calc R U . . .
C15 C 0.89249(19) 0.6567(4) 0.85093(16) 0.0306(7) Uani 1 1 d . . . . .
H15 H 0.9579 0.6553 0.8734 0.037 Uiso 1 1 calc R U . . .
C16 C 0.8343(2) 0.5477(4) 0.87206(15) 0.0304(7) Uani 1 1 d . . . . .
H16 H 0.8599 0.4727 0.9094 0.036 Uiso 1 1 calc R U . . .
C17 C 0.73934(19) 0.5484(4) 0.83874(14) 0.0264(6) Uani 1 1 d . . . . .
H17 H 0.6996 0.4759 0.8542 0.032 Uiso 1 1 calc R U . . .
C18 C 0.55731(17) 0.1511(3) 0.61095(14) 0.0244(6) Uani 1 1 d . . . . .
H18A H 0.5226 0.1516 0.6460 0.029 Uiso 1 1 calc R U . . .
H18B H 0.5393 0.0500 0.5820 0.029 Uiso 1 1 calc R U . . .
C19 C 0.66082(17) 0.1467(3) 0.64810(14) 0.0227(6) Uani 1 1 d . . . . .
C20 C 0.69807(19) 0.2114(4) 0.71458(15) 0.0282(6) Uani 1 1 d . . . . .
H20 H 0.6577 0.2559 0.7387 0.034 Uiso 1 1 calc R U . . .
C21 C 0.7938(2) 0.2119(4) 0.74623(15) 0.0281(6) Uani 1 1 d . . . . .
H21 H 0.8183 0.2572 0.7918 0.034 Uiso 1 1 calc R U . . .
C22 C 0.85419(18) 0.1472(4) 0.71241(14) 0.0243(6) Uani 1 1 d . . . . .
C23 C 0.81682(18) 0.0804(3) 0.64549(14) 0.0231(6) Uani 1 1 d . . . . .
C24 C 0.72187(18) 0.0811(3) 0.61387(14) 0.0228(6) Uani 1 1 d . . . . .
H24 H 0.6974 0.0365 0.5682 0.027 Uiso 1 1 calc R U . . .
C25 C 0.9897(2) 0.2229(4) 0.80424(15) 0.0359(7) Uani 1 1 d . . . . .
H25A H 0.9712 0.3399 0.7998 0.054 Uiso 1 1 calc R U . . .
H25B H 1.0579 0.2147 0.8169 0.054 Uiso 1 1 calc R U . . .
H25C H 0.9677 0.1706 0.8406 0.054 Uiso 1 1 calc R U . . .
C26 C 0.8456(2) -0.0532(5) 0.54832(16) 0.0374(8) Uani 1 1 d . . . . .
H26A H 0.8042 -0.1458 0.5506 0.056 Uiso 1 1 calc R U . . .
H26B H 0.8972 -0.0939 0.5322 0.056 Uiso 1 1 calc R U . . .
H26C H 0.8103 0.0307 0.5156 0.056 Uiso 1 1 calc R U . . .
N1 N 0.39061(14) 0.4406(3) 0.54839(12) 0.0231(5) Uani 1 1 d . . . . .
N2 N 0.54589(14) 0.4585(3) 0.60507(11) 0.0217(5) Uani 1 1 d . . . . .
O1 O 0.38356(13) 0.2026(3) 0.48250(11) 0.0342(5) Uani 1 1 d . . . . .
O2 O 0.54976(12) 0.5479(3) 0.76483(10) 0.0300(5) Uani 1 1 d . . . . .
O3 O 0.94951(12) 0.1409(3) 0.73954(10) 0.0296(5) Uani 1 1 d . . . . .
O4 O 0.88168(12) 0.0182(2) 0.61568(10) 0.0281(5) Uani 1 1 d . . . . .
S1 S 0.44295(4) 0.70997(9) 0.63231(4) 0.0240(2) Uani 1 1 d . . . . .

loop_
_atom_site_aniso_label
_atom_site_aniso_U_11
_atom_site_aniso_U_22
_atom_site_aniso_U_33
_atom_site_aniso_U_23
_atom_site_aniso_U_13
_atom_site_aniso_U_12
C1 0.0259(14) 0.0164(15) 0.0311(15) 0.0000(12) 0.0096(11) 0.0001(11)
C2 0.0213(13) 0.0185(15) 0.0266(13) -0.0012(11) 0.0083(10) -0.0011(10)
C3 0.0246(13) 0.0169(15) 0.0282(14) -0.0019(11) 0.0095(11) -0.0008(10)
C4 0.0176(12) 0.0159(14) 0.0359(15) 0.0015(12) 0.0084(11) 0.0005(10)
C5 0.0222(13) 0.0238(16) 0.0321(15) 0.0036(12) 0.0059(11) -0.0043(11)
C6 0.0279(15) 0.0259(17) 0.0416(17) 0.0101(14) 0.0036(12) -0.0045(12)
C7 0.0179(14) 0.0332(19) 0.060(2) 0.0102(16) 0.0080(13) 0.0021(12)
C8 0.0260(15) 0.040(2) 0.0507(19) -0.0015(15) 0.0190(14) -0.0019(13)
C9 0.0256(15) 0.0283(17) 0.0367(16) 0.0028(13) 0.0118(12) -0.0004(12)
C10 0.0196(13) 0.0161(14) 0.0314(14) -0.0040(11) 0.0086(11) -0.0017(10)
C11 0.0267(14) 0.0140(14) 0.0314(14) -0.0052(11) 0.0165(11) -0.0012(11)
C12 0.0274(14) 0.0165(14) 0.0255(13) -0.0044(11) 0.0127(11) 0.0002(11)
C13 0.0263(14) 0.0197(15) 0.0369(16) 0.0006(12) 0.0134(12) -0.0006(11)
C14 0.0263(14) 0.0243(16) 0.0407(17) -0.0021(13) 0.0137(12) -0.0031(12)
C15 0.0257(14) 0.0297(17) 0.0355(16) -0.0064(13) 0.0079(12) 0.0028(12)
C16 0.0379(16) 0.0262(17) 0.0263(14) -0.0007(12) 0.0084(12) 0.0040(12)
C17 0.0354(15) 0.0226(16) 0.0243(14) -0.0027(11) 0.0136(12) -0.0018(12)
C18 0.0242(13) 0.0166(14) 0.0338(15) -0.0001(12) 0.0106(11) -0.0007(11)
C19 0.0248(14) 0.0123(14) 0.0315(14) 0.0020(11) 0.0092(11) 0.0008(11)
C20 0.0316(15) 0.0212(16) 0.0334(16) -0.0030(12) 0.0124(12) 0.0020(12)
C21 0.0352(16) 0.0217(16) 0.0260(14) -0.0026(12) 0.0066(12) 0.0007(12)
C22 0.0267(14) 0.0169(14) 0.0270(14) 0.0022(11) 0.0046(11) -0.0019(11)
C23 0.0257(13) 0.0150(14) 0.0311(14) 0.0015(11) 0.0123(11) 0.0021(11)
C24 0.0283(14) 0.0140(14) 0.0259(13) 0.0001(11) 0.0077(11) -0.0024(11)
C25 0.0303(16) 0.042(2) 0.0305(16) -0.0064(14) 0.0019(13) -0.0085(14)
C26 0.0309(16) 0.047(2) 0.0370(17) -0.0120(15) 0.0138(13) 0.0021(14)
N1 0.0203(11) 0.0172(12) 0.0318(12) -0.0030(10) 0.0075(9) 0.0000(9)
N2 0.0212(11) 0.0144(12) 0.0304(12) -0.0013(9) 0.0087(9) 0.0001(9)
O1 0.0303(11) 0.0244(12) 0.0444(13) -0.0110(10) 0.0054(9) -0.0024(9)
O2 0.0305(11) 0.0270(12) 0.0366(11) 0.0023(9) 0.0161(9) -0.0048(8)
O3 0.0243(10) 0.0294(12) 0.0327(11) -0.0040(9) 0.0047(8) -0.0031(8)
O4 0.0259(10) 0.0287(12) 0.0309(11) -0.0046(9) 0.0100(8) -0.0001(8)
S1 0.0204(4) 0.0174(4) 0.0348(4) -0.0044(3) 0.0091(3) 0.0021(2)

_geom_special_details            
;
 All esds (except the esd in the dihedral angle between two l.s. planes)
 are estimated using the full covariance matrix.  The cell esds are taken
 into account individually in the estimation of esds in distances, angles
 and torsion angles; correlations between esds in cell parameters are only
 used when they are defined by crystal symmetry.  An approximate (isotropic)
 treatment of cell esds is used for estimating esds involving l.s. planes.
;

loop_
_geom_bond_atom_site_label_1
_geom_bond_atom_site_label_2
_geom_bond_distance
_geom_bond_site_symmetry_2
_geom_bond_publ_flag
C1 O1 1.201(3) . ?
C1 N1 1.392(3) . ?
C1 C3 1.519(4) . ?
C2 N2 1.279(3) . ?
C2 N1 1.408(3) . ?
C2 S1 1.744(3) . ?
C3 N2 1.466(3) . ?
C3 C18 1.533(4) . ?
C3 H3 1.0000 . ?
C4 C5 1.388(4) . ?
C4 C9 1.394(4) . ?
C4 N1 1.430(3) . ?
C5 C6 1.384(4) . ?
C5 H5 0.9500 . ?
C6 C7 1.390(4) . ?
C6 H6 0.9500 . ?
C7 C8 1.379(5) . ?
C7 H7 0.9500 . ?
C8 C9 1.380(4) . ?
C8 H8 0.9500 . ?
C9 H9 0.9500 . ?
C10 C11 1.515(4) . ?
C10 S1 1.797(3) . ?
C10 H10A 0.9900 . ?
C10 H10B 0.9900 . ?
C11 O2 1.220(3) . ?
C11 C12 1.493(4) . ?
C12 C17 1.393(4) . ?
C12 C13 1.400(4) . ?
C13 C14 1.384(4) . ?
C13 H13 0.9500 . ?
C14 C15 1.374(4) . ?
C14 H14 0.9500 . ?
C15 C16 1.389(4) . ?
C15 H15 0.9500 . ?
C16 C17 1.383(4) . ?
C16 H16 0.9500 . ?
C17 H17 0.9500 . ?
C18 C19 1.510(3) . ?
C18 H18A 0.9900 . ?
C18 H18B 0.9900 . ?
C19 C20 1.384(4) . ?
C19 C24 1.400(4) . ?
C20 C21 1.388(4) . ?
C20 H20 0.9500 . ?
C21 C22 1.383(4) . ?
C21 H21 0.9500 . ?
C22 O3 1.372(3) . ?
C22 C23 1.399(4) . ?
C23 C24 1.376(4) . ?
C23 O4 1.378(3) . ?
C24 H24 0.9500 . ?
C25 O3 1.420(3) . ?
C25 H25A 0.9800 . ?
C25 H25B 0.9800 . ?
C25 H25C 0.9800 . ?
C26 O4 1.419(3) . ?
C26 H26A 0.9800 . ?
C26 H26B 0.9800 . ?
C26 H26C 0.9800 . ?

loop_
_geom_angle_atom_site_label_1
_geom_angle_atom_site_label_2
_geom_angle_atom_site_label_3
_geom_angle
_geom_angle_site_symmetry_1
_geom_angle_site_symmetry_3
_geom_angle_publ_flag
O1 C1 N1 126.2(3) . . ?
O1 C1 C3 129.4(2) . . ?
N1 C1 C3 104.4(2) . . ?
N2 C2 N1 115.4(2) . . ?
N2 C2 S1 125.9(2) . . ?
N1 C2 S1 118.62(18) . . ?
N2 C3 C1 106.0(2) . . ?
N2 C3 C18 111.9(2) . . ?
C1 C3 C18 110.5(2) . . ?
N2 C3 H3 109.5 . . ?
C1 C3 H3 109.5 . . ?
C18 C3 H3 109.5 . . ?
C5 C4 C9 121.0(2) . . ?
C5 C4 N1 119.2(2) . . ?
C9 C4 N1 119.7(2) . . ?
C6 C5 C4 119.0(3) . . ?
C6 C5 H5 120.5 . . ?
C4 C5 H5 120.5 . . ?
C5 C6 C7 120.4(3) . . ?
C5 C6 H6 119.8 . . ?
C7 C6 H6 119.8 . . ?
C8 C7 C6 120.0(3) . . ?
C8 C7 H7 120.0 . . ?
C6 C7 H7 120.0 . . ?
C7 C8 C9 120.7(3) . . ?
C7 C8 H8 119.6 . . ?
C9 C8 H8 119.6 . . ?
C8 C9 C4 118.9(3) . . ?
C8 C9 H9 120.5 . . ?
C4 C9 H9 120.5 . . ?
C11 C10 S1 114.19(18) . . ?
C11 C10 H10A 108.7 . . ?
S1 C10 H10A 108.7 . . ?
C11 C10 H10B 108.7 . . ?
S1 C10 H10B 108.7 . . ?
H10A C10 H10B 107.6 . . ?
O2 C11 C12 120.5(2) . . ?
O2 C11 C10 121.9(2) . . ?
C12 C11 C10 117.6(2) . . ?
C17 C12 C13 118.9(3) . . ?
C17 C12 C11 118.8(2) . . ?
C13 C12 C11 122.3(2) . . ?
C14 C13 C12 120.1(3) . . ?
C14 C13 H13 119.9 . . ?
C12 C13 H13 119.9 . . ?
C15 C14 C13 120.5(3) . . ?
C15 C14 H14 119.7 . . ?
C13 C14 H14 119.7 . . ?
C14 C15 C16 119.9(3) . . ?
C14 C15 H15 120.0 . . ?
C16 C15 H15 120.0 . . ?
C17 C16 C15 120.0(3) . . ?
C17 C16 H16 120.0 . . ?
C15 C16 H16 120.0 . . ?
C16 C17 C12 120.4(3) . . ?
C16 C17 H17 119.8 . . ?
C12 C17 H17 119.8 . . ?
C19 C18 C3 111.5(2) . . ?
C19 C18 H18A 109.3 . . ?
C3 C18 H18A 109.3 . . ?
C19 C18 H18B 109.3 . . ?
C3 C18 H18B 109.3 . . ?
H18A C18 H18B 108.0 . . ?
C20 C19 C24 118.5(2) . . ?
C20 C19 C18 121.9(2) . . ?
C24 C19 C18 119.6(2) . . ?
C19 C20 C21 120.5(2) . . ?
C19 C20 H20 119.7 . . ?
C21 C20 H20 119.7 . . ?
C22 C21 C20 120.9(3) . . ?
C22 C21 H21 119.5 . . ?
C20 C21 H21 119.5 . . ?
O3 C22 C21 125.2(2) . . ?
O3 C22 C23 116.1(2) . . ?
C21 C22 C23 118.7(2) . . ?
C24 C23 O4 124.7(2) . . ?
C24 C23 C22 120.3(2) . . ?
O4 C23 C22 115.0(2) . . ?
C23 C24 C19 120.9(3) . . ?
C23 C24 H24 119.5 . . ?
C19 C24 H24 119.5 . . ?
O3 C25 H25A 109.5 . . ?
O3 C25 H25B 109.5 . . ?
H25A C25 H25B 109.5 . . ?
O3 C25 H25C 109.5 . . ?
H25A C25 H25C 109.5 . . ?
H25B C25 H25C 109.5 . . ?
O4 C26 H26A 109.5 . . ?
O4 C26 H26B 109.5 . . ?
H26A C26 H26B 109.5 . . ?
O4 C26 H26C 109.5 . . ?
H26A C26 H26C 109.5 . . ?
H26B C26 H26C 109.5 . . ?
C1 N1 C2 107.6(2) . . ?
C1 N1 C4 124.6(2) . . ?
C2 N1 C4 127.8(2) . . ?
C2 N2 C3 106.4(2) . . ?
C22 O3 C25 117.0(2) . . ?
C23 O4 C26 116.1(2) . . ?
C2 S1 C10 97.20(12) . . ?

_refine_diff_density_max         1.150
_refine_diff_density_min         -0.791
_refine_diff_density_rms         0.112

_shelxl_version_number           2014/6

_shelx_res_file                  
;
TITL 181208lt_0m_a.res in P2(1)/c
CELL  0.71073  14.9997   8.0616  20.0338   90.000  107.259   90.000
ZERR    4.000   0.0015   0.0007   0.0020    0.000    0.004    0.000
LATT 1
SYMM -X, 1/2+Y, 1/2-Z
SFAC C  H  N  O  S
UNIT 104  96  8  16  4
L.S. 4
ACTA
BOND $H
FMAP 2
PLAN 5
TEMP -173.000
WGHT    0.125900
FVAR       0.34895
C1    1    0.426939    0.301580    0.524416    11.00000    0.02592    0.01639 =
         0.03110    0.00005    0.00964    0.00013
C2    1    0.465645    0.525242    0.595100    11.00000    0.02131    0.01854 =
         0.02661   -0.00116    0.00826   -0.00114
C3    1    0.530348    0.304689    0.564195    11.00000    0.02457    0.01686 =
         0.02815   -0.00188    0.00947   -0.00078
AFIX  13
H3    2    0.567603    0.307342    0.530270    11.00000   -1.20000
AFIX   0
C4    1    0.294466    0.488421    0.525614    11.00000    0.01757    0.01585 =
         0.03589    0.00153    0.00835    0.00046
C5    1    0.251577    0.516712    0.455008    11.00000    0.02221    0.02385 =
         0.03208    0.00357    0.00589   -0.00433
AFIX  43
H5    2    0.285662    0.505175    0.422167    11.00000   -1.20000
AFIX   0
C6    1    0.158367    0.561998    0.433185    11.00000    0.02792    0.02590 =
         0.04156    0.01009    0.00358   -0.00449
AFIX  43
H6    2    0.128012    0.580648    0.384954    11.00000   -1.20000
AFIX   0
C7    1    0.108955    0.580326    0.481463    11.00000    0.01791    0.03322 =
         0.05975    0.01019    0.00800    0.00213
AFIX  43
H7    2    0.045329    0.613480    0.466323    11.00000   -1.20000
AFIX   0
C8    1    0.152342    0.550358    0.551340    11.00000    0.02605    0.04041 =
         0.05067   -0.00152    0.01899   -0.00194
AFIX  43
H8    2    0.118131    0.562155    0.584086    11.00000   -1.20000
AFIX   0
C9    1    0.244937    0.503409    0.574222    11.00000    0.02560    0.02830 =
         0.03670    0.00282    0.01183   -0.00039
AFIX  43
H9    2    0.274462    0.481647    0.622329    11.00000   -1.20000
AFIX   0
C10   1    0.561284    0.755212    0.682215    11.00000    0.01956    0.01611 =
         0.03145   -0.00402    0.00855   -0.00165
AFIX  23
H10A  2    0.601555    0.745624    0.651185    11.00000   -1.20000
H10B  2    0.564584    0.871524    0.698626    11.00000   -1.20000
AFIX   0
C11   1    0.599679    0.643100    0.744851    11.00000    0.02665    0.01404 =
         0.03142   -0.00522    0.01648   -0.00124
C12   1    0.701498    0.654590    0.782642    11.00000    0.02744    0.01647 =
         0.02551   -0.00436    0.01272    0.00019
C13   1    0.760626    0.765783    0.762722    11.00000    0.02627    0.01973 =
         0.03686    0.00059    0.01345   -0.00056
AFIX  43
H13   2    0.735711    0.840847    0.725267    11.00000   -1.20000
AFIX   0
C14   1    0.855294    0.766572    0.797480    11.00000    0.02632    0.02429 =
         0.04072   -0.00209    0.01371   -0.00310
AFIX  43
H14   2    0.894894    0.843695    0.784281    11.00000   -1.20000
AFIX   0
C15   1    0.892488    0.656708    0.850932    11.00000    0.02571    0.02969 =
         0.03550   -0.00639    0.00792    0.00281
AFIX  43
H15   2    0.957862    0.655261    0.873414    11.00000   -1.20000
AFIX   0
C16   1    0.834342    0.547726    0.872056    11.00000    0.03794    0.02615 =
         0.02627   -0.00065    0.00837    0.00402
AFIX  43
H16   2    0.859879    0.472706    0.909414    11.00000   -1.20000
AFIX   0
C17   1    0.739336    0.548388    0.838742    11.00000    0.03541    0.02261 =
         0.02430   -0.00270    0.01362   -0.00182
AFIX  43
H17   2    0.699601    0.475910    0.854224    11.00000   -1.20000
AFIX   0
C18   1    0.557311    0.151084    0.610950    11.00000    0.02420    0.01660 =
         0.03376   -0.00010    0.01061   -0.00071
AFIX  23
H18A  2    0.522593    0.151569    0.645967    11.00000   -1.20000
H18B  2    0.539324    0.049966    0.582036    11.00000   -1.20000
AFIX   0
C19   1    0.660820    0.146691    0.648100    11.00000    0.02482    0.01227 =
         0.03151    0.00204    0.00919    0.00079
C20   1    0.698072    0.211414    0.714583    11.00000    0.03164    0.02121 =
         0.03342   -0.00304    0.01244    0.00197
AFIX  43
H20   2    0.657727    0.255876    0.738733    11.00000   -1.20000
AFIX   0
C21   1    0.793848    0.211877    0.746232    11.00000    0.03520    0.02170 =
         0.02596   -0.00260    0.00665    0.00067
AFIX  43
H21   2    0.818338    0.257238    0.791782    11.00000   -1.20000
AFIX   0
C22   1    0.854187    0.147231    0.712406    11.00000    0.02670    0.01694 =
         0.02703    0.00218    0.00460   -0.00194
C23   1    0.816824    0.080353    0.645491    11.00000    0.02573    0.01500 =
         0.03108    0.00145    0.01234    0.00210
C24   1    0.721869    0.081117    0.613868    11.00000    0.02835    0.01400 =
         0.02588    0.00010    0.00771   -0.00236
AFIX  43
H24   2    0.697403    0.036529    0.568175    11.00000   -1.20000
AFIX   0
C25   1    0.989686    0.222878    0.804239    11.00000    0.03034    0.04232 =
         0.03050   -0.00641    0.00188   -0.00851
AFIX 137
H25A  2    0.971220    0.339927    0.799808    11.00000   -1.50000
H25B  2    1.057861    0.214708    0.816943    11.00000   -1.50000
H25C  2    0.967704    0.170561    0.840619    11.00000   -1.50000
AFIX   0
C26   1    0.845551   -0.053235    0.548315    11.00000    0.03093    0.04677 =
         0.03696   -0.01205    0.01376    0.00209
AFIX 137
H26A  2    0.804224   -0.145833    0.550595    11.00000   -1.50000
H26B  2    0.897190   -0.093899    0.532183    11.00000   -1.50000
H26C  2    0.810286    0.030665    0.515637    11.00000   -1.50000
AFIX   0
N1    3    0.390611    0.440591    0.548392    11.00000    0.02029    0.01718 =
         0.03183   -0.00304    0.00753   -0.00003
N2    3    0.545887    0.458498    0.605071    11.00000    0.02116    0.01435 =
         0.03035   -0.00133    0.00871    0.00008
O1    4    0.383557    0.202573    0.482502    11.00000    0.03030    0.02435 =
         0.04437   -0.01103    0.00540   -0.00235
O2    4    0.549759    0.547894    0.764830    11.00000    0.03048    0.02703 =
         0.03656    0.00233    0.01612   -0.00478
O3    4    0.949513    0.140926    0.739542    11.00000    0.02434    0.02943 =
         0.03271   -0.00398    0.00471   -0.00310
O4    4    0.881677    0.018225    0.615678    11.00000    0.02593    0.02867 =
         0.03087   -0.00457    0.01003   -0.00013
S1    5    0.442949    0.709967    0.632314    11.00000    0.02045    0.01739 =
         0.03480   -0.00436    0.00907    0.00207
HKLF 4

REM  181208lt_0m_a.res in P2(1)/c
REM R1 =  0.0760 for    3506 Fo > 4sig(Fo)  and  0.0986 for all    4756 data
REM    300 parameters refined using      0 restraints

END

WGHT      0.1257      0.0000

REM Highest difference peak  1.150,  deepest hole -0.791,  1-sigma level  0.112
Q1    1   0.5057  0.7181  0.6480  11.00000  0.05    1.15
Q2    1   0.3792  0.7143  0.6194  11.00000  0.05    1.01
Q3    1   0.6085  0.1472  0.6274  11.00000  0.05    0.61
Q4    1   0.9001  0.1469  0.7226  11.00000  0.05    0.59
Q5    1   0.4210  0.4991  0.5769  11.00000  0.05    0.56
;
_shelx_res_checksum              91507
