##
# A CIF 1.1 file that contains data items produced by the SHELXL crystal
# structure refinement software, but are not formally described in an
# existing CIF dictionary. Unfortunately, it is not uncommon for
# CIF-producing software to use data items with special registered
# prefixes (i.e. _shelxl, _olex, _jana), but not explicitly describe
# these items in CIF dictionaries.
#
# It should also be noted that crystal structure refinement software
# often embeds internally structured data files into CIF data items
# (i.e. see the '_shelx_res_file' data item). Such items are usually
# much larger than the rest of the data file.
##

##
# Original COD entry: 8000346
# COD entry URL: https://www.crystallography.net/cod/8000346.cif
# Paper DOI: 10.1021/acs.jpclett.9b02734
##
data_test_011
_journal_issue                   22
_journal_name_full               'The journal of physical chemistry letters'
_journal_page_first              7224
_journal_page_last               7229
_journal_paper_doi               10.1021/acs.jpclett.9b02734
_journal_volume                  10
_journal_year                    2019
_chemical_formula_sum            'C10 H14 N2 O4'
_chemical_formula_weight         226.23
_space_group_crystal_system      triclinic
_space_group_IT_number           2
_space_group_name_Hall           '-P 1'
_space_group_name_H-M_alt        'P -1'
_atom_sites_solution_hydrogens   difmap
_audit_creation_method           SHELXL-2018/3
_cell_angle_alpha                82.304(5)
_cell_angle_beta                 81.080(6)
_cell_angle_gamma                86.244(6)
_cell_formula_units_Z            1
_cell_length_a                   3.9491(3)
_cell_length_b                   8.3309(5)
_cell_length_c                   8.6409(4)
_cell_measurement_temperature    293(2)
_cell_measurement_theta_max      30.0
_cell_measurement_theta_min      2.0
_cell_volume                     278.02(3)
_computing_structure_refinement  'SHELXL-2018/3 (Sheldrick, 2018)'
_diffrn_ambient_temperature      293(2)
_diffrn_measured_fraction_theta_full 0.800
_diffrn_measured_fraction_theta_max 0.790
_diffrn_measurement_device_type  KOALA
_diffrn_measurement_method       Laue
_diffrn_radiation_type           neutrons
_diffrn_reflns_av_R_equivalents  0.1089
_diffrn_reflns_av_unetI/netI     0.0613
_diffrn_reflns_limit_h_max       5
_diffrn_reflns_limit_h_min       -5
_diffrn_reflns_limit_k_max       11
_diffrn_reflns_limit_k_min       -11
_diffrn_reflns_limit_l_max       11
_diffrn_reflns_limit_l_min       -11
_diffrn_reflns_number            1098
_diffrn_reflns_theta_full        30.664
_diffrn_reflns_theta_max         34.607
_diffrn_reflns_theta_min         6.137
_diffrn_source                   'nuclear reactor'
_exptl_absorpt_coefficient_mu    0.162
_exptl_crystal_density_diffrn    1.351
_exptl_crystal_description       block
_exptl_crystal_F_000             120
_exptl_crystal_size_max          1.800
_exptl_crystal_size_mid          0.800
_exptl_crystal_size_min          0.800
_refine_diff_density_max         0.752
_refine_diff_density_min         -0.802
_refine_diff_density_rms         0.162
_refine_ls_extinction_method     none
_refine_ls_goodness_of_fit_ref   1.102
_refine_ls_hydrogen_treatment    refall
_refine_ls_matrix_type           full
_refine_ls_number_parameters     136
_refine_ls_number_reflns         1098
_refine_ls_number_restraints     0
_refine_ls_restrained_S_all      1.102
_refine_ls_R_factor_all          0.1200
_refine_ls_R_factor_gt           0.0778
_refine_ls_shift/su_max          0.000
_refine_ls_shift/su_mean         0.000
_refine_ls_structure_factor_coef Fsqd
_refine_ls_weighting_details
'w=1/[\s^2^(Fo^2^)+(0.0623P)^2^+3.7255P] where P=(Fo^2^+2Fc^2^)/3'
_refine_ls_weighting_scheme      calc
_refine_ls_wR_factor_gt          0.1703
_refine_ls_wR_factor_ref         0.1924
_reflns_Friedel_coverage         0.000
_reflns_number_gt                752
_reflns_number_total             1098
_reflns_threshold_expression     'I > 2\s(I)'
_shelx_shelxl_version_number     2018/3
_shelx_space_group_comment
;
The symmetry employed for this shelxl refinement is uniquely defined
by the following loop, which should always be used as a source of
symmetry information in preference to the above space-group names.
They are only intended as comments.
;
_shelx_estimated_absorpt_t_min   0.759
_shelx_estimated_absorpt_t_max   0.881
_shelx_res_file
;
TITL 1_a.res in P-1
    shelx.res
    created by SHELXL-2018/3 at 23:33:47 on 18-Mar-2019
REM Old TITL 1_a.res in P1
REM SHELXT solution in P-1: R1 0.404, Rweak 0.281, Alpha 0.283
REM <I/s> 0.000 for 0 systematic absences, Orientation as input
REM Formula found by SHELXT: C5 N O2
CELL 0.85 3.9491 8.3309 8.6409 82.304 81.08 86.244
ZERR 1 0.0003 0.0005 0.0004 0.005 0.006 0.006
LATT 1
NEUT
SFAC C H N O
DISP C 0.0056 0.0025 17.1198
DISP H -0 0 0.6311
DISP N 0.01 0.0049 30.7768
DISP O 0.0172 0.0091 52.3863
UNIT 10 14 2 4
L.S. 15
PLAN  20
SIZE 1.8 0.8 0.8
TEMP 20
BOND
list 4
fmap -2
acta
OMIT -3 -1 4
OMIT 3 -5 2
OMIT -3 2 1
OMIT 0 -6 5
OMIT 0 9 4
OMIT 0 -4 5
OMIT 4 5 5
OMIT 0 -3 5
OMIT 0 -8 1
OMIT 0 7 2
OMIT 0 3 5
OMIT  0  -3  10
OMIT -3  -4   7
OMIT  4   7   3
OMIT  0   9   5
OMIT -1   2   7
OMIT  4   7   1
OMIT  0   1   6
OMIT -1   4   5
OMIT 0  -7   5
OMIT 0  -4   3
OMIT -1   6   1
OMIT  0   8   5
OMIT -1  -2  10
OMIT 5  -1   1
OMIT   0  -5   8
OMIT   4   3   8
OMIT   0  -2   3
OMIT   0  -5   2
OMIT    -1   6   3
OMIT    -1   7   1
OMIT    -1   3   5
OMIT     0  -4   1
WGHT    0.062300    3.725500
FVAR       1.49561
O2    4    0.428937    0.803094    0.092748    11.00000    0.11294    0.02880 =
         0.03834    0.00460   -0.02507   -0.01330
O1    4    0.631123    1.010755    0.180621    11.00000    0.16614    0.04586 =
         0.05021    0.01345   -0.05516   -0.04010
C1    1    0.523369    0.951330    0.080435    11.00000    0.08864    0.03022 =
         0.02817    0.00389   -0.01924   -0.00968
H2    2    0.455391    0.740142    0.197856    11.00000    0.10014    0.03762 =
         0.05350   -0.00018   -0.01696   -0.00725
N1    3    0.475326    0.606440    0.366829    11.00000    0.05674    0.02110 =
         0.02142    0.00375   -0.00483   -0.00076
C4    1    0.650177    0.463473    0.356648    11.00000    0.04486    0.02656 =
         0.02591   -0.00386   -0.00206   -0.00298
C2    1    0.325180    0.644926    0.507574    11.00000    0.04750    0.02129 =
         0.02746   -0.00155   -0.00471   -0.00016
C5    1    0.812878    0.426941    0.195522    11.00000    0.06660    0.05171 =
         0.02860   -0.01327    0.00315    0.00175
H5A   2    0.758329    0.515804    0.111865    11.00000    0.30806    0.11268 =
         0.03515    0.00491    0.04623    0.08388
H5B   2    0.726274    0.321236    0.166716    11.00000    0.15261    0.12051 =
         0.07994   -0.05944    0.01250   -0.02540
H5C   2    1.066091    0.397106    0.188923    11.00000    0.08079    0.28444 =
         0.07788   -0.08008    0.01350    0.01735
C3    1    0.139874    0.807865    0.511660    11.00000    0.06016    0.02880 =
         0.05393   -0.01008   -0.01270    0.01201
H3A   2    0.270940    0.887501    0.549303    11.00000    0.11525    0.04583 =
         0.39566   -0.08378   -0.12162    0.03202
H3C   2   -0.094621    0.802943    0.586656    11.00000    0.09432    0.08832 =
         0.18366    0.00405    0.03027    0.03329
H3B   2    0.068241    0.850739    0.406010    11.00000    0.26679    0.08947 =
         0.07508   -0.00367   -0.03830    0.10124
HKLF 4




REM  1_a.res in P-1
REM wR2 = 0.1924, GooF = S = 1.102, Restrained GooF = 1.102 for all data
REM R1 = 0.0778 for 752 Fo > 4sig(Fo) and 0.1200 for all 1098 data
REM 136 parameters refined using 0 restraints

END

WGHT      0.0623      3.7259

REM Highest difference peak  0.752,  deepest hole -0.802,  1-sigma level  0.162
Q1    1   0.9824  0.5318  0.1566  11.00000  0.05   -0.80
Q2    1   0.3107  0.8906  0.4345  11.00000  0.05   -0.77
Q3    1   0.4841  0.6696  0.2827  11.00000  0.05    0.75
Q4    1  -0.1077  0.7926  0.4720  11.00000  0.05   -0.72
Q5    1   0.1720  0.8428  0.6150  11.00000  0.05   -0.67
Q6    1  -0.1635  0.8036  0.4017  11.00000  0.05    0.67
Q7    1   0.1871  0.9058  0.6686  11.00000  0.05    0.66
Q8    1   0.3924  0.5273  0.1789  11.00000  0.05    0.64
Q9    1   0.8451  0.4886  0.1276  11.00000  0.05    0.62
Q10   1   0.3202  0.6042  0.3014  11.00000  0.05   -0.59
Q11   1   0.7077  0.4228  0.1170  11.00000  0.05   -0.57
Q12   1  -0.2624  0.7703  0.5387  11.00000  0.05    0.55
Q13   1  -0.0104  0.8543  0.3812  11.00000  0.05   -0.55
Q14   1   0.6202  1.0554  0.1200  11.00000  0.05   -0.54
Q15   1   0.9969  0.5855  0.0818  11.00000  0.05    0.53
Q16   1   0.6225  0.9423  0.2290  11.00000  0.05    0.52
Q17   1   0.4513  0.9405  0.3760  11.00000  0.05    0.51
Q18   1   0.8870  0.6554  0.0750  11.00000  0.05   -0.51
Q19   1   0.6193  0.5784  0.1996  11.00000  0.05    0.51
Q20   1   0.6532  0.6661  0.3431  11.00000  0.05   -0.50
;
_shelx_res_checksum              80750
_shelx_hkl_file
;
   0   1 -11   -39.8    39.1
   0   1 -10   328.4    27.8
   0   1  -9   152.4    21.0
   0   1  -8   913.6    24.7
   0   1  -7  2961.9    34.5
   0   1  -6  1129.5    22.4
   0   1  -5   450.9    10.6
   0   1  -4   522.5     8.7
   0   1  -3  4735.8    73.7
   0   1  -2    39.5     2.1
   0   1   2    32.2     1.9
   0   1   3   135.0     4.5
   0   1   4  1121.8    15.1
   0   1   5  2509.0    22.7
   0   1   6  1905.4    27.3
   0   1   7     8.9    17.3
   0   1   8   673.1    21.8
   0   1   9    48.4    17.6
   0   1  10    13.8    20.9
   0   1  11   190.0    28.3
   0   2  -9   333.7    16.9
   0   2  -7   736.1    15.2
   0   2  -5  1168.7    16.7
   0   2  -3   336.9     7.8
   0   2  -1    88.0     3.9
   0   2   1    59.0     2.3
   0   2   3   330.7     8.4
   0   2   5  6130.7    58.9
   0   2   7   436.6    16.9
   0   2   9   752.7    23.7
   0   2  11   505.4    26.4
   0   3 -10 10235.3    76.1
   0   3  -8    39.3    13.4
   0   3  -7    68.4    13.8
   0   3  -5  1395.0    24.9
   0   3  -4   422.2    10.9
   0   3  -2   575.3    27.0
   0   3  -1   183.3    14.4
   0   3   1   137.5     7.5
   0   3   2    33.7     1.9
   0   3   4    40.4     9.5
   0   3   5   367.6    14.6
   0   3   7    38.0    15.2
   0   3   8    32.1    17.2
   0   3  10    57.7    26.8
   0   3  11    34.2    29.4
   0   4  -9    90.1    21.9
   0   4  -7    88.8    14.6
   0   4  -5   676.1    16.4
   0   4  -3   324.9    10.8
   0   4  -1   201.5    11.9
   0   4   1  1048.6    17.7
   0   4   3    20.3     7.0
   0   4   5    48.0    11.6
   0   4   7  1117.6    24.6
   0   4   9    83.5    22.8
   0   4  11     3.7    43.0
   0   5  -9    21.6    26.8
   0   5  -8   486.9    20.2
   0   5  -7   454.0    16.9
   0   5  -6  1396.0    21.5
   0   5  -4   967.0    17.7
   0   5  -3  2430.1    38.4
   0   5  -2   222.2    11.2
   0   5  -1   672.7    12.5
   0   5   1  1713.7    18.5
   0   5   2   262.8     8.4
   0   5   3   259.2     9.0
   0   5   4   152.0    29.8
   0   5   6   137.0    18.4
   0   5   7  1467.3    30.2
   0   5   8    39.2    20.7
   0   5   9   113.8    25.4
   0   6  -7   825.4    21.1
   0   6  -5  1045.0    17.4
   0   6  -1  2354.7    22.8
   0   6   1   941.8    14.6
   0   6   5  2451.1    31.9
   0   6   7   553.8    21.0
   0   7  -6   837.3    19.8
   0   7  -5   305.0    15.5
   0   7  -4   196.5    15.3
   0   7  -3   122.4    13.0
   0   7  -2  7077.8    54.7
   0   7  -1  1059.1    16.5
   0   7   1    25.2    12.2
   0   7   2  2539.4    42.1
   0   7   3    25.4    15.4
   0   7   4    62.4    24.9
   0   7   5  3811.2    53.8
   0   7   6   313.5    22.3
   0   7   8    33.7    24.2
   0   7   9   476.6    34.2
   0   8  -5   860.1    20.0
   0   8  -3   134.9    14.1
   0   8  -1  4050.2    44.6
   0   8   1    -7.3    20.0
   0   8   3  1320.3    30.0
   0   8   5   276.7    21.1
   0   8   7   165.7    21.9
   0   9  -5    76.4    24.1
   0   9  -4   485.3    19.7
   0   9  -2   224.1    17.4
   0   9  -1   757.6    22.6
   0   9   1   217.8    24.3
   0   9   2    27.2    23.8
   0   9   4  3182.7    69.5
   0   9   5  1754.5    36.6
   0   9   7   345.0    28.3
   0  10  -3     3.8    26.3
   0  10  -1   110.3    26.4
   0  10   1    49.6    31.8
   0  10   3    34.1    29.4
   0  11   1    39.0    47.6
   0  11   2   -51.2    48.4
   0  11   3   -55.7    70.2
   1 -10  -5   729.9    52.0
   1 -10  -4   346.7    33.8
   1 -10  -3    25.9    29.9
   1 -10  -2   330.8    46.7
   1 -10  -1   134.6    32.3
   1 -10   0   176.2    28.5
   1 -10   1   566.5    30.5
   1 -10   2   755.6    29.8
   1 -10   3   327.8    30.6
   1  -9  -6   160.3    28.3
   1  -9  -5    92.3    31.4
   1  -9  -4   113.9    23.9
   1  -9  -3    91.3    21.6
   1  -9  -2    11.9    24.2
   1  -9  -1    99.5    28.8
   1  -9   0   175.5    20.4
   1  -9   1    10.6    17.7
   1  -9   2     0.8    18.2
   1  -9   3   195.7    18.3
   1  -9   4   377.2    20.9
   1  -9   5    53.1    24.7
   1  -8  -8    56.6    38.8
   1  -8  -7    18.8    23.1
   1  -8  -6   263.4    19.9
   1  -8  -5    23.6    21.8
   1  -8  -4   288.2    21.0
   1  -8  -3    36.9    17.5
   1  -8  -2   567.6    19.9
   1  -8  -1   105.3    19.9
   1  -8   0   135.2    16.7
   1  -8   1   738.1    15.8
   1  -8   2    41.3    13.6
   1  -8   3   329.7    15.1
   1  -8   4   100.0    15.7
   1  -8   5  1346.1    23.9
   1  -8   6    14.5    26.8
   1  -7  -8   160.0    30.8
   1  -7  -7    18.7    23.9
   1  -7  -6    -6.5    15.7
   1  -7  -5   200.9    15.2
   1  -7  -4    11.3    15.9
   1  -7  -3    41.3    15.8
   1  -7  -2  4052.5    45.9
   1  -7  -1  1623.3    23.8
   1  -7   0   228.0    12.2
   1  -7   1  1157.1    17.4
   1  -7   2  2611.4    23.7
   1  -7   3     4.6    13.3
   1  -7   4    15.1    13.7
   1  -7   5   253.0    16.1
   1  -7   6   893.6    22.8
   1  -7   7   132.2    26.9
   1  -6  -9   158.9    29.8
   1  -6  -8   430.8    24.0
   1  -6  -7    61.2    20.1
   1  -6  -6   106.0    16.5
   1  -6  -5   196.5    17.8
   1  -6  -4  3214.2    45.4
   1  -6  -3   557.5    21.4
   1  -6  -2    57.2    11.8
   1  -6  -1   245.0    11.1
   1  -6   0   943.5    13.6
   1  -6   1  1143.0    16.7
   1  -6   2  1475.8    21.7
   1  -6   3  6955.6    41.2
   1  -6   4    -8.3    13.0
   1  -6   5    32.5    13.7
   1  -6   6    72.7    16.3
   1  -6   7   186.7    19.4
   1  -6   8   201.9    25.4
   1  -5 -10   184.4    41.8
   1  -5  -9   162.7    29.7
   1  -5  -8    43.2    19.1
   1  -5  -7    21.0    15.5
   1  -5  -6   306.3    15.6
   1  -5  -5  3461.8    50.8
   1  -5  -4  5847.2    53.0
   1  -5  -3   905.8    18.2
   1  -5  -2    57.2     9.1
   1  -5  -1   225.9     9.1
   1  -5   0  1619.3    18.6
   1  -5   1    76.1     9.4
   1  -5   2  4319.6    43.6
   1  -5   3   884.6    15.9
   1  -5   4  2271.2    27.8
   1  -5   5   207.6    13.7
   1  -5   6    20.3    14.8
   1  -5   7   547.4    17.3
   1  -5   8    26.7    19.2
   1  -5   9   502.6    28.8
   1  -4 -10    37.8    40.3
   1  -4  -9   125.6    30.5
   1  -4  -8   -30.9    19.6
   1  -4  -7   848.3    21.1
   1  -4  -6   129.8    14.3
   1  -4  -5  2740.5    48.1
   1  -4  -4  1232.9    18.2
   1  -4  -3   208.4    12.3
   1  -4  -2   120.7     6.2
   1  -4  -1   959.1    15.9
   1  -4   0  4688.2    54.1
   1  -4   1   897.5    15.8
   1  -4   2    89.0    10.7
   1  -4   3     1.2     7.3
   1  -4   4   -17.4     9.6
   1  -4   5    25.6    11.1
   1  -4   6   733.9    15.9
   1  -4   7   699.4    16.4
   1  -4   8   511.4    18.0
   1  -4   9    59.8    21.6
   1  -4  10    16.8    31.5
   1  -3 -10    37.2    27.2
   1  -3  -9   279.6    22.1
   1  -3  -8    29.8    19.3
   1  -3  -7  2282.9    28.9
   1  -3  -6  1962.6    27.4
   1  -3  -5   817.2    15.5
   1  -3  -4   464.0    10.4
   1  -3  -3   156.5     6.0
   1  -3  -2    29.6     5.7
   1  -3  -1   486.4     9.3
   1  -3   0  1010.6    24.0
   1  -3   1   418.7    12.1
   1  -3   2  1367.8    22.8
   1  -3   3  1528.2    18.8
   1  -3   4   285.2    11.8
   1  -3   5   129.4     9.7
   1  -3   6   546.8    14.1
   1  -3   7   608.7    14.8
   1  -3   8    35.5    14.1
   1  -3   9    27.4    17.6
   1  -3  10   400.9    27.5
   1  -2 -10   355.7    24.4
   1  -2  -9   305.0    18.9
   1  -2  -8    82.4    15.9
   1  -2  -7  1978.2    36.6
   1  -2  -6    83.6    12.3
   1  -2  -5    20.0     7.2
   1  -2  -4    89.6     5.8
   1  -2  -3    -5.7     4.6
   1  -2  -2   787.0    11.5
   1  -2  -1  1794.2    27.5
   1  -2   0     3.8     3.4
   1  -2   1     7.5     4.1
   1  -2   2  2022.2    36.6
   1  -2   3    23.0     5.2
   1  -2   4    59.2     7.5
   1  -2   5   123.4     7.5
   1  -2   6    33.4    10.6
   1  -2   7   239.3    11.6
   1  -2   8    -8.2    13.8
   1  -2   9   522.8    18.4
   1  -2  10    58.7    22.1
   1  -1 -10   456.9    26.8
   1  -1  -9     3.6    18.4
   1  -1  -8   195.0    16.5
   1  -1  -7  1875.3    29.1
   1  -1  -6  1151.4    24.4
   1  -1  -5   483.9    15.8
   1  -1  -4  2409.0    32.1
   1  -1  -3    17.6     4.6
   1  -1  -2  1431.7    35.5
   1  -1  -1   489.3    17.0
   1  -1   0   814.2    17.5
   1  -1   1   491.7    12.1
   1  -1   2    82.9    29.9
   1  -1   3  6845.6    83.9
   1  -1   4     7.4     5.8
   1  -1   5   808.6    16.4
   1  -1   6    -6.2    11.4
   1  -1   7    67.3    12.5
   1  -1   8   606.1    22.3
   1  -1   9     1.3    19.5
   1  -1  10  1688.5    35.9
   1  -1  11   -28.5    36.4
   1   0 -10   368.4    30.3
   1   0  -9   164.2    21.0
   1   0  -8   128.7    15.6
   1   0  -7   121.9    13.5
   1   0  -6   210.6    11.6
   1   0  -5     4.8     7.9
   1   0  -4  6119.3    72.6
   1   0  -3   307.9     8.8
   1   0  -2    11.0     4.1
   1   0  -1   641.7    28.0
   1   0   0  6888.5   887.4
   1   0   1   999.2    39.1
   1   0   2   544.4    20.1
   1   0   3  1831.7    41.5
   1   0   4   897.9    25.8
   1   0   5    -3.8     7.4
   1   0   6  1434.9    20.0
   1   0   7  4503.0    62.9
   1   0   8   571.3    22.6
   1   0   9   116.1    19.2
   1   0  10   129.2    22.9
   1   0  11   548.6    32.6
   1   1 -10   581.5    27.2
   1   1  -9    37.4    18.5
   1   1  -8   700.8    19.2
   1   1  -7  1499.0    21.6
   1   1  -6  3756.7    30.7
   1   1  -5   339.1    11.1
   1   1  -4   574.5    12.2
   1   1  -3   462.7     9.0
   1   1  -2     4.4     3.1
   1   1  -1  2462.3    39.1
   1   1   0  1452.1    24.4
   1   1   2  1960.8    63.4
   1   1   3   557.7    23.0
   1   1   4    58.2     8.1
   1   1   5   131.6     7.2
   1   1   6   978.5    17.7
   1   1   7   638.6    18.5
   1   1   8  5343.7    61.1
   1   1   9   193.0    19.4
   1   1  10    60.0    20.5
   1   1  11    45.6    27.3
   1   2 -10   624.9    28.3
   1   2  -9    -4.1    18.6
   1   2  -8    33.1    14.6
   1   2  -7  1092.8    19.8
   1   2  -6  4525.6    46.6
   1   2  -5   816.4    14.2
   1   2  -4   267.7     8.3
   1   2  -3   434.7    10.9
   1   2  -2   839.6    18.1
   1   2  -1   165.4     4.2
   1   2   1  2877.4    71.4
   1   2   2   191.2     4.2
   1   2   3    25.1     3.2
   1   2   4   136.3     3.3
   1   2   5  4667.3    40.0
   1   2   6   183.2     9.8
   1   2   7  2756.9    41.2
   1   2   8     4.7    16.9
   1   2   9   548.8    21.8
   1   2  10   157.0    20.3
   1   2  11   207.0    23.2
   1   3 -10   339.0    67.5
   1   3  -9   340.7    23.4
   1   3  -8   159.9    16.2
   1   3  -7    40.4    13.9
   1   3  -6  1662.4    20.7
   1   3  -5    17.7    11.0
   1   3  -4   435.9    15.9
   1   3  -3   515.7     9.7
   1   3  -2  3775.1    30.2
   1   3  -1  1484.6    24.3
   1   3   0     6.0     3.1
   1   3   1   148.4     4.9
   1   3   2    26.8     4.4
   1   3   3    20.0     3.4
   1   3   4   633.1    24.5
   1   3   5  2160.0    35.8
   1   3   6   886.6    26.1
   1   3   7    29.7    15.3
   1   3   8    36.7    18.0
   1   3   9    19.2    19.7
   1   3  10    52.3    24.3
   1   3  11   114.3    34.2
   1   4  -9   376.4    27.0
   1   4  -8   449.6    20.2
   1   4  -7    15.2    14.3
   1   4  -6    71.8    12.8
   1   4  -5   567.5    14.4
   1   4  -4   641.0    12.2
   1   4  -3   269.5     9.0
   1   4  -2   145.1     8.4
   1   4  -1  2083.9    40.1
   1   4   0  1220.0    16.8
   1   4   1     1.2     5.5
   1   4   2    13.0     4.2
   1   4   3   447.0    13.7
   1   4   4    92.0    11.9
   1   4   5   240.1    11.1
   1   4   6   153.8    14.5
   1   4   7   150.6    15.4
   1   4   8   490.9    20.1
   1   4   9     7.1    21.0
   1   4  10    46.8    27.5
   1   4  11    76.9    38.7
   1   5  -8   697.3    22.6
   1   5  -7    15.2    15.7
   1   5  -6    20.8    14.0
   1   5  -5   784.4    16.5
   1   5  -4  1411.3    21.7
   1   5  -3   397.9    13.0
   1   5  -2   195.6     9.5
   1   5  -1   221.0     7.6
   1   5   0   708.6    11.7
   1   5   1   820.1    14.0
   1   5   2   735.5     9.9
   1   5   3   157.4     8.2
   1   5   4  1418.9    53.0
   1   5   5   -29.2    17.9
   1   5   6   361.9    17.6
   1   5   7  1567.8    32.3
   1   5   8    33.8    22.1
   1   5   9   189.6    21.4
   1   5  10   102.4    29.4
   1   6  -8    16.3    23.6
   1   6  -7   647.4    20.4
   1   6  -6   348.2    15.9
   1   6  -5   465.1    15.7
   1   6  -4  1018.9    17.2
   1   6  -3   634.7    13.5
   1   6  -2  1438.9    17.6
   1   6  -1     1.6     8.5
   1   6   0    60.7     9.4
   1   6   1  3406.0    27.0
   1   6   2   552.0    18.7
   1   6   3  1114.0    19.6
   1   6   4   206.3    16.6
   1   6   5   163.0    17.6
   1   6   6   275.8    17.8
   1   6   7   144.6    17.8
   1   6   8  1729.4    35.3
   1   6   9    20.8    25.8
   1   6  10   236.2    29.4
   1   7  -7   340.7    23.7
   1   7  -6   868.5    20.6
   1   7  -5   353.6    16.0
   1   7  -4    42.7    13.0
   1   7  -3   -26.1    12.5
   1   7  -2  1724.7    20.9
   1   7  -1   699.8    13.4
   1   7   0  1666.3    19.6
   1   7   1   207.7    11.9
   1   7   2    57.2    14.6
   1   7   3   326.3    17.2
   1   7   4    99.9    23.8
   1   7   5  3180.6    46.0
   1   7   6   926.5    25.1
   1   7   7   409.2    21.6
   1   7   8    35.1    23.6
   1   7   9   143.5    31.8
   1   8  -6    56.0    23.8
   1   8  -5    84.0    18.6
   1   8  -4    28.4    14.9
   1   8  -3   317.7    14.0
   1   8  -2  1729.6    20.8
   1   8  -1  2794.5    26.6
   1   8   0   307.4    16.1
   1   8   1   567.4    21.3
   1   8   2   484.1    21.1
   1   8   3   222.3    19.0
   1   8   4   287.3    20.1
   1   8   5   207.0    19.9
   1   8   6  2529.3    38.7
   1   8   7   540.0    22.6
   1   8   8   112.0    27.6
   1   8   9     9.7    36.4
   1   9  -4    59.2    20.4
   1   9  -3   165.0    18.6
   1   9  -2   164.1    16.8
   1   9  -1  1385.4    25.3
   1   9   0   244.8    18.8
   1   9   1   184.0    23.2
   1   9   2    10.1    22.2
   1   9   3   516.1    23.6
   1   9   4   579.1    23.1
   1   9   5   282.8    23.9
   1   9   6   340.4    27.9
   1   9   7    22.9    30.3
   1  10  -3   111.1    27.0
   1  10  -2   -10.7    24.0
   1  10  -1   121.8    24.3
   1  10   0   134.6    25.5
   1  10   1    -7.9    31.6
   1  10   2    32.0    31.5
   1  10   3   299.0    33.3
   1  10   4   171.3    26.9
   1  10   5    58.0    32.4
   1  10   6    94.2    35.1
   1  11   1   -51.5    48.8
   1  11   2    66.0    45.5
   2  -9  -5   298.3    85.7
   2  -9  -3   345.0   109.0
   2  -9  -2  -126.1   109.7
   2  -9  -1   665.3    53.2
   2  -9   0    25.2    57.0
   2  -9   1   478.9    35.5
   2  -9   2   389.7    27.3
   2  -9   3   496.2    31.5
   2  -8  -5   162.6    81.6
   2  -8  -3   107.8    59.4
   2  -8  -1    34.0    45.6
   2  -8   1   458.7    21.6
   2  -8   3    52.9    22.8
   2  -8   5   435.9    27.8
   2  -7  -6    24.9    77.1
   2  -7  -5    85.0    64.6
   2  -7  -4    44.8    52.2
   2  -7  -3   201.7    50.7
   2  -7  -2   179.4    35.0
   2  -7  -1   123.7    30.1
   2  -7   0    15.5    17.6
   2  -7   1    37.4    15.5
   2  -7   2   627.7    21.7
   2  -7   3    -9.9    17.1
   2  -7   4    41.4    20.7
   2  -7   5   100.6    20.4
   2  -7   6   541.2    24.9
   2  -7   7   -11.3    26.8
   2  -6  -7   -45.9    74.2
   2  -6  -5   -75.2    61.3
   2  -6  -3   -32.4    60.8
   2  -6  -1  2891.7    50.1
   2  -6   1   207.9    17.2
   2  -6   3  1236.7    22.7
   2  -6   5    78.4    16.8
   2  -6   7   107.5    22.1
   2  -5  -8   348.4    96.0
   2  -5  -7    27.5    57.3
   2  -5  -6    45.1    46.4
   2  -5  -5    94.7    83.0
   2  -5  -4   508.1    28.8
   2  -5  -3  1698.6    37.4
   2  -5  -2    41.1    12.1
   2  -5  -1   107.2    12.3
   2  -5   0    43.8    13.2
   2  -5   1    36.9    13.2
   2  -5   2   657.0    17.9
   2  -5   3  1812.0    29.7
   2  -5   4  1411.2    23.9
   2  -5   5   -15.0    15.8
   2  -5   6     8.4    18.4
   2  -5   7   146.9    18.3
   2  -5   8   -12.8    22.5
   2  -4  -9   -88.1    66.8
   2  -4  -7  -225.8    65.0
   2  -4  -5   270.4    28.6
   2  -4  -3  2777.3    44.2
   2  -4  -1    14.5    11.6
   2  -4   1    19.8    10.6
   2  -4   3  2852.9    50.7
   2  -4   5   524.3    17.1
   2  -4   7    27.2    16.2
   2  -4   9    36.1    25.8
   2  -3  -9   323.3    58.8
   2  -3  -8    70.4    55.2
   2  -3  -7   148.7   104.4
   2  -3  -6   540.1    59.7
   2  -3  -5    69.2    18.5
   2  -3  -4  1078.6    21.4
   2  -3  -3  1323.6    23.3
   2  -3  -2   333.0    10.9
   2  -3  -1     3.8     8.9
   2  -3   0   499.1    15.8
   2  -3   1  4673.7    42.5
   2  -3   2    86.0    10.0
   2  -3   3    25.9     9.7
   2  -3   4    10.1    11.0
   2  -3   5   119.1    13.8
   2  -3   6    12.8    13.4
   2  -3   7   574.6    15.9
   2  -3   8  1116.9    19.6
   2  -3   9     5.2    18.0
   2  -3  10   166.2    25.0
   2  -2  -9    26.5    78.3
   2  -2  -7    26.8    32.7
   2  -2  -5   391.3    16.7
   2  -2  -3   299.1    10.2
   2  -2  -1   650.0    11.1
   2  -2   1  1843.5    23.0
   2  -2   3   295.3    12.4
   2  -2   5    20.0    12.1
   2  -2   7    73.5    12.5
   2  -2   9   487.0    20.2
   2  -1  -9   147.6    35.9
   2  -1  -8    88.8    40.6
   2  -1  -7    59.4    29.1
   2  -1  -6   209.1    21.0
   2  -1  -5   215.5    12.4
   2  -1  -4    13.5     9.8
   2  -1  -3     8.6     8.8
   2  -1  -2   653.4    10.3
   2  -1  -1  1556.8    20.8
   2  -1   0    73.0    14.1
   2  -1   1    12.4     9.1
   2  -1   2   242.6     6.1
   2  -1   3    38.8     6.9
   2  -1   4     6.6     8.5
   2  -1   5   243.5    12.7
   2  -1   6   797.6    15.3
   2  -1   7   294.3    12.4
   2  -1   8   -15.3    15.1
   2  -1   9   231.5    18.9
   2  -1  10   962.3    32.6
   2   0  -9   184.5    38.6
   2   0  -7    17.0    20.7
   2   0  -5   354.3    13.1
   2   0  -3   759.5    13.2
   2   0  -1    50.8     8.3
   2   0   1   304.8    15.3
   2   0   3  1674.9    27.0
   2   0   5    28.8     8.8
   2   0   7   423.1    13.6
   2   0   9    26.1    18.4
   2   0  11   853.9    41.9
   2   1  -9   252.9    26.6
   2   1  -8    65.7    26.5
   2   1  -7    12.3    18.2
   2   1  -6    12.5    14.4
   2   1  -5   127.3    11.5
   2   1  -4     3.0    11.0
   2   1  -3  3845.9    72.7
   2   1  -2  1119.3    17.4
   2   1  -1    72.6     4.9
   2   1   0   659.2    11.8
   2   1   1   124.0     4.2
   2   1   2  1013.7    13.0
   2   1   3   105.7     5.6
   2   1   4  4355.1    36.8
   2   1   5    36.1     9.1
   2   1   6    31.9    12.4
   2   1   7   534.5    17.4
   2   1   8  2814.2    34.5
   2   1   9   633.8    19.3
   2   1  10     1.9    20.6
   2   1  11    44.0    28.3
   2   2  -9   116.2    24.5
   2   2  -7   368.9    17.1
   2   2  -5  2208.5    30.0
   2   2  -3   478.7     9.9
   2   2  -1   120.4     5.8
   2   2   1  6012.4    78.2
   2   2   3   366.3     7.6
   2   2   5     4.2     8.0
   2   2   7  1131.6    20.4
   2   2   9  1038.8    23.6
   2   2  11    48.0    27.2
   2   3  -9    40.6    30.4
   2   3  -8    66.7    24.3
   2   3  -7    34.9    18.2
   2   3  -6  1936.0    29.4
   2   3  -5  1708.4    24.3
   2   3  -4   422.1    12.0
   2   3  -3    14.6     9.6
   2   3  -2    47.9     6.7
   2   3  -1     0.8     6.4
   2   3   0     7.7     6.4
   2   3   1  3308.1    31.4
   2   3   2  1915.4    21.5
   2   3   3    29.7     6.6
   2   3   4     9.4     7.0
   2   3   5   322.9    12.9
   2   3   6   399.8    13.7
   2   3   7    -4.5    14.5
   2   3   8   896.8    21.5
   2   3   9   427.5    23.3
   2   3  10    36.3    29.1
   2   3  11    53.0    39.7
   2   4  -7    -2.8    17.2
   2   4  -5  2226.3    29.5
   2   4  -3    90.3    10.2
   2   4  -1  4276.0    38.5
   2   4   1   162.4     7.1
   2   4   3   625.1    14.0
   2   4   5   246.0    14.8
   2   4   7    97.3    17.7
   2   4   9    19.9    21.5
   2   5  -7   116.2    21.0
   2   5  -6   109.8    16.5
   2   5  -5    33.6    14.5
   2   5  -4   300.1    13.2
   2   5  -3   369.8    12.2
   2   5  -2    33.8     9.6
   2   5  -1   351.9    11.6
   2   5   0   328.3    10.4
   2   5   1   475.0    11.0
   2   5   2    27.9     8.3
   2   5   3  1019.3    21.2
   2   5   4   105.8    13.0
   2   5   5    47.5    12.9
   2   5   6     9.3    14.9
   2   5   7  1005.4    24.2
   2   5   8    76.6    19.8
   2   5   9   135.4    21.7
   2   5  10    37.6    27.1
   2   6  -7   268.4    29.2
   2   6  -5    -4.1    16.7
   2   6  -3   389.8    12.0
   2   6  -1    13.3    10.8
   2   6   1   135.8    14.7
   2   6   3  1068.5    23.3
   2   6   5   459.1    19.1
   2   6   7   204.9    19.5
   2   6   9    54.9    28.1
   2   7  -6   178.7    28.0
   2   7  -5   541.8    22.1
   2   7  -4   131.7    15.5
   2   7  -3     1.3    13.0
   2   7  -2    11.0    12.3
   2   7  -1   264.2    12.3
   2   7   0   224.3    15.2
   2   7   1   802.7    17.5
   2   7   2  1198.0    27.7
   2   7   3    55.4    16.5
   2   7   4   806.4    21.0
   2   7   5    73.4    16.7
   2   7   6    22.8    17.2
   2   7   7    77.3    19.9
   2   7   8    54.2    27.1
   2   7   9   497.9    37.4
   2   8  -5   223.5    27.9
   2   8  -3     4.3    17.6
   2   8  -1   306.9    16.0
   2   8   1   453.0    20.7
   2   8   3   386.3    18.2
   2   8   5    -1.4    20.2
   2   8   7   614.6    24.0
   2   9  -3   -21.9    22.6
   2   9  -2   119.5    19.9
   2   9  -1  1262.8    26.5
   2   9   0  1532.4    30.6
   2   9   1   178.4    25.1
   2   9   2    14.0    27.0
   2   9   3    -0.7    24.0
   2   9   4    66.4    22.3
   2   9   5   206.7    27.2
   2   9   6  1133.9    37.6
   2   9   7   941.7    39.2
   2  10  -1   569.3    31.6
   2  10   1   176.7    31.7
   2  10   3   198.9    42.1
   2  10   5   116.5    37.2
   3  -8  -3   319.9   244.5
   3  -8  -2   -95.9   115.0
   3  -8  -1   -30.4    61.0
   3  -8   0   254.8    31.2
   3  -8   1    -5.7    29.4
   3  -8   2   255.8    31.4
   3  -8   3   323.9    34.9
   3  -7  -3   187.0    78.1
   3  -7  -2   169.1    50.9
   3  -7  -1    60.4    33.4
   3  -7   0    55.0    20.8
   3  -7   1    63.3    22.7
   3  -7   2    21.2    23.8
   3  -7   3   155.8    25.6
   3  -7   4    42.9    30.0
   3  -7   5   -21.7    34.7
   3  -6  -5   413.6   137.5
   3  -6  -4  -136.4   102.8
   3  -6  -2    57.8    35.1
   3  -6  -1    93.0    17.5
   3  -6   1    50.9    18.7
   3  -6   2    -3.8    19.7
   3  -6   4    24.1    23.2
   3  -6   5    67.3    26.8
   3  -5  -4   -53.1    41.7
   3  -5  -3   137.8    26.7
   3  -5  -2   -21.8    17.6
   3  -5  -1   524.2    18.6
   3  -5   0   344.1    19.6
   3  -5   1   149.2    18.9
   3  -5   2  3918.1    53.9
   3  -5   3    59.3    20.3
   3  -5   4   243.2    21.7
   3  -5   5    24.6    20.4
   3  -5   6   227.0    26.3
   3  -5   7   235.0    28.1
   3  -4  -6    65.9    71.2
   3  -4  -5  -157.0    60.5
   3  -4  -4   256.6    45.4
   3  -4  -3   441.0    25.7
   3  -4  -2   363.0    17.2
   3  -4  -1   169.5    17.0
   3  -4   0   722.3    21.5
   3  -4   1    27.8    19.2
   3  -4   2    87.4    22.9
   3  -4   3   259.3    22.9
   3  -4   4  1005.4    29.2
   3  -4   5   489.2    23.7
   3  -4   6    -8.5    20.5
   3  -4   7    60.7    26.0
   3  -4   8   -13.8    29.2
   3  -3  -8  -552.6   309.9
   3  -3  -7   -39.9   262.2
   3  -3  -5   143.1    31.3
   3  -3  -4   326.8    22.5
   3  -3  -2   827.3    21.4
   3  -3  -1   169.2    16.9
   3  -3   1    16.2    19.6
   3  -3   2   484.7    22.4
   3  -3   4  2070.6    41.5
   3  -3   5   792.1    26.6
   3  -3   7    34.6    20.9
   3  -3   8   283.2    26.5
   3  -2  -8   172.2   111.5
   3  -2  -7    69.6    57.0
   3  -2  -6   101.9    31.1
   3  -2  -5    75.0    18.7
   3  -2  -4   172.1    14.3
   3  -2  -3   540.0    17.9
   3  -2  -2  1277.6    26.7
   3  -2  -1  2698.7    47.9
   3  -2   0    32.5    16.6
   3  -2   1   168.6    17.3
   3  -2   2   644.7    20.4
   3  -2   3   242.0    18.7
   3  -2   4    67.8    19.6
   3  -2   5   334.6    24.0
   3  -2   6    36.8    17.3
   3  -2   7    34.2    17.9
   3  -2   8   141.5    20.8
   3  -2   9   869.2    51.8
   3  -1  -8    63.3    70.1
   3  -1  -7   169.9    43.6
   3  -1  -6   106.0    25.8
   3  -1  -5   535.7    20.3
   3  -1  -4    83.0    14.4
   3  -1  -3   266.6    15.3
   3  -1  -2    40.2    13.6
   3  -1  -1   147.2    14.1
   3  -1   0   437.0    17.8
   3  -1   1   616.8    19.4
   3  -1   2  2316.5    44.3
   3  -1   3   284.7    16.3
   3  -1   4    20.6    14.3
   3  -1   5   689.5    21.0
   3  -1   6   171.5    14.4
   3  -1   7    67.6    20.5
   3  -1   8   182.1    32.4
   3  -1   9    -0.6    57.8
   3  -1  10   254.3    49.4
   3   0  -8   125.4    62.0
   3   0  -7   -11.3    30.4
   3   0  -5   130.7    17.2
   3   0  -4   199.9    16.8
   3   0  -2    26.9    15.9
   3   0  -1   224.7    15.8
   3   0   1    23.7    14.3
   3   0   2    -1.7    14.2
   3   0   4    27.2    12.9
   3   0   5   -11.9    14.9
   3   0   7   200.3    32.2
   3   0   8   -17.8    47.9
   3   0  10    61.6    51.9
   3   1  -8   -26.7    44.6
   3   1  -7     3.1    32.1
   3   1  -6   -19.4    23.8
   3   1  -5   127.1    20.4
   3   1  -4  5566.9   103.0
   3   1  -3    64.2    15.9
   3   1  -2   603.1    18.1
   3   1  -1    -4.7    15.4
   3   1   0   104.9    14.7
   3   1   1    -4.4    14.1
   3   1   2     8.9    12.9
   3   1   3   118.9    11.3
   3   1   4   931.3    17.7
   3   1   5   710.4    20.1
   3   1   6    12.4    25.0
   3   1   7   338.3    43.1
   3   1   8    73.7    40.2
   3   1   9   138.6    57.8
   3   1  10    98.6    50.1
   3   2  -7   -15.8    34.6
   3   2  -6    18.2    25.6
   3   2  -5    14.2    19.8
   3   2  -4    70.9    17.6
   3   2  -3   263.9    19.2
   3   2  -2   940.4    20.6
   3   2  -1   308.0    14.6
   3   2   0    36.9    14.2
   3   2   1   100.1    12.5
   3   2   2   193.0    12.3
   3   2   3    73.6    13.1
   3   2   4   478.3    15.9
   3   2   5   317.7    21.1
   3   2   6   197.0    31.7
   3   2   7   -37.6    60.8
   3   2   8    54.3    79.4
   3   2   9   340.2    38.4
   3   2  10    16.7    41.5
   3   3  -7    84.9    35.5
   3   3  -5   288.6    24.7
   3   3  -4   765.0    32.2
   3   3  -2   591.8    20.8
   3   3  -1    20.8    15.3
   3   3   1   767.5    19.9
   3   3   2  1784.1    23.4
   3   3   4    97.6    23.4
   3   3   5   221.0    28.8
   3   3   7    33.4    33.6
   3   3   8   203.6    39.9
   3   3  10   435.8    51.1
   3   4  -7  3850.6   100.0
   3   4  -6    75.5    40.3
   3   4  -5  1800.6    40.2
   3   4  -4   495.7    25.1
   3   4  -3    65.6    22.8
   3   4  -2   -13.4    17.9
   3   4  -1   104.2    20.0
   3   4   0   -27.6    14.1
   3   4   1   118.8    14.7
   3   4   2  2907.5    38.5
   3   4   3   287.5    25.1
   3   4   4   155.1    19.2
   3   4   5    61.0    60.4
   3   4   6   974.5   110.3
   3   4   7    64.8    37.0
   3   4   8   -44.9    50.5
   3   4   9   286.4    44.4
   3   4  10   170.6    58.1
   3   5  -6   -83.9    45.1
   3   5  -5   223.2    36.9
   3   5  -4   574.6    30.5
   3   5  -3    36.2    20.4
   3   5  -2    17.3    20.5
   3   5  -1   243.3    20.2
   3   5   0   649.7    20.4
   3   5   1    51.7    16.6
   3   5   2    46.2    19.3
   3   5   3   737.0    37.0
   3   5   4    89.4    49.8
   3   5   5   -38.9    26.7
   3   5   6    54.6    28.6
   3   5   7  1033.3    34.1
   3   5   8     4.9    26.9
   3   5   9    11.0    28.8
   3   6  -5    82.4    32.0
   3   6  -4    60.8    33.6
   3   6  -2   169.4    22.9
   3   6  -1    55.1    20.7
   3   6   1    70.7    28.7
   3   6   2   199.1    30.4
   3   6   4   220.5   109.5
   3   6   5    66.1    33.7
   3   6   7    85.0    28.8
   3   6   8    17.7    33.0
   3   7  -4   -11.7    35.9
   3   7  -3    30.3    30.1
   3   7  -2    15.2    24.0
   3   7  -1   177.9    21.0
   3   7   0    74.2    26.6
   3   7   1   119.8    31.1
   3   7   2    85.5    37.9
   3   7   3    -2.1    38.7
   3   7   4   174.9    32.8
   3   7   5     1.1    22.7
   3   7   6     0.9    25.1
   3   7   7    24.5    23.4
   3   7   8     9.7    31.0
   3   8  -3    44.1    32.2
   3   8  -2    38.8    27.5
   3   8  -1   -46.3    27.2
   3   8   0    56.5    36.2
   3   8   1     6.9    34.9
   3   8   2   105.7    32.5
   3   8   3   615.2    63.7
   3   8   4     6.1    30.4
   3   8   5    22.0    30.1
   3   8   6    39.1    33.4
   3   8   7   -55.9    28.9
   3   9  -1    46.5    51.1
   3   9   1   123.8    38.6
   3   9   2   134.6    46.0
   3   9   4   184.3    31.0
   3   9   5   -45.0    32.3
   4  -6  -1    10.0    33.2
   4  -6   1   130.6    34.4
   4  -6   3    44.4    34.6
   4  -5  -4   156.8    48.8
   4  -5  -3     4.6    29.7
   4  -5  -2   -23.4    31.6
   4  -5  -1    46.2    27.5
   4  -5   0    25.5    24.5
   4  -5   1    76.4    25.0
   4  -5   2    13.2    27.3
   4  -5   3    22.0    28.9
   4  -5   4    30.7    29.9
   4  -5   5    24.3    30.4
   4  -4  -3    -3.4    25.7
   4  -4  -1   -26.2    23.5
   4  -4   1    31.9    21.5
   4  -4   3    15.4    24.1
   4  -4   5    40.0    28.5
   4  -3  -5   -19.7    33.0
   4  -3  -4    52.8    25.8
   4  -3  -3   168.4    23.8
   4  -3  -2   240.6    21.5
   4  -3  -1    14.3    19.6
   4  -3   0   174.7    21.1
   4  -3   1   281.4    23.0
   4  -3   2    20.1    19.1
   4  -3   3    42.3    21.8
   4  -3   4   366.6    24.5
   4  -3   5   324.7    26.5
   4  -3   6    74.1    24.6
   4  -3   7    15.4    30.3
   4  -2  -5     3.8    30.3
   4  -2  -3   351.7    23.3
   4  -2  -1   211.9    20.8
   4  -2   1    -8.6    20.1
   4  -2   3   228.5    20.8
   4  -2   5  1198.6    28.4
   4  -2   7    81.7    26.7
   4  -1  -6   -27.4    62.3
   4  -1  -5    76.0    28.9
   4  -1  -4    16.2    23.0
   4  -1  -3   194.0    20.6
   4  -1  -2   311.8    20.3
   4  -1  -1   184.8    20.1
   4  -1   0   -35.6    19.8
   4  -1   1    48.9    20.7
   4  -1   2   188.9    19.2
   4  -1   3    29.8    19.3
   4  -1   4   221.7    18.7
   4  -1   5    36.0    19.8
   4  -1   6    97.4    22.4
   4  -1   7   -28.2    22.0
   4  -1   8    65.7    36.3
   4   0  -5   125.2    29.0
   4   0  -3    36.1    21.0
   4   0  -1     7.5    20.1
   4   0   1   163.9    19.2
   4   0   3   305.7    19.2
   4   0   5    32.5    18.4
   4   0   7    47.3    38.3
   4   1  -5    11.3    28.2
   4   1  -4   -24.3    23.0
   4   1  -3   -32.5    19.8
   4   1  -2    33.9    18.8
   4   1  -1    12.4    18.4
   4   1   0   -39.8    18.7
   4   1   1     2.5    16.8
   4   1   2    87.6    16.4
   4   1   3    29.3    15.4
   4   1   4    21.8    15.7
   4   1   5    83.2    22.7
   4   1   6    25.1    31.7
   4   1   7   151.1    89.4
   4   1   8    44.3   136.4
   4   2  -5    10.3    41.7
   4   2  -3     4.4    21.0
   4   2  -1   148.0    18.6
   4   2   1    28.6    16.1
   4   2   3    19.8    14.4
   4   2   5    57.3    41.9
   4   2   7   -26.4    98.7
   4   3  -5    -9.5    48.4
   4   3  -4     5.0    35.9
   4   3  -3    37.6    23.0
   4   3  -2   247.1    21.4
   4   3  -1   155.1    18.9
   4   3   0   100.2    18.0
   4   3   1     5.2    16.1
   4   3   2    13.8    15.8
   4   3   3   125.0    17.0
   4   3   4    70.0    26.0
   4   3   5   369.0    50.4
   4   3   6    52.6    98.5
   4   3   8  1445.4   237.5
   4   4  -3   103.3    37.2
   4   4  -1    86.7    20.8
   4   4   1    11.3    18.5
   4   4   3   267.7    33.6
   4   4   5    67.5   156.6
   4   5  -3    81.4    37.4
   4   5  -2    60.0    33.0
   4   5  -1   -10.9    23.6
   4   5   0    45.5    22.1
   4   5   1   111.8    22.4
   4   5   2   127.3    26.8
   4   5   3   834.7    38.8
   4   5   4   -11.8    79.6
   4   5   5  5250.4   286.4
   4   6  -1    18.5    35.4
   4   6   1   116.7    41.5
   4   6   3   110.6   100.4
   4   7  -1    90.6    47.1
   4   7   0    20.8    42.8
   4   7   1   978.9    79.0
   4   7   2    65.2   108.4
   4   7   3 68047.9  2635.2
   5  -2   0    -4.0    32.2
   5  -2   1    34.5    34.6
   5  -2   2    52.2    35.0
   5  -2   3    76.0    40.3
   5  -1  -1   348.2    34.9
   5  -1   0   109.9    35.0
   5  -1   1   299.8    30.6
   5  -1   2    -6.5    32.0
   5  -1   3    -9.5    33.7
   5  -1   4    68.2    40.1
   5   0  -1   230.2    33.6
   5   0   1    23.8    33.1
   5   0   2    49.3    26.9
   5   0   3    30.3    27.3
   5   0   4     7.8    35.6
   5   1  -1    20.2    29.7
   5   1   0   -26.2    30.3
   5   1   1    22.9    30.2
   5   1   2   -13.1    32.4
   5   1   3   121.3    28.2
   5   1   4     9.4    29.2
   5   1   5   -24.2    38.6
   5   2  -1   -64.0    37.6
   5   2   0    15.2    29.6
   5   2   1    27.1    27.8
   5   2   2    63.5    29.9
   5   2   3    71.9    30.0
   5   2   4    17.8    31.2
   5   2   5   -43.5    41.9
   5   3   0   107.1    38.1
   5   3   1    88.9    31.6
   5   3   2     3.4    29.7
   5   3   3   -13.1    33.5
   5   3   4    -1.5    36.4
   5   4   2    18.9    34.0
   5   4   3    61.8    42.9
;
_shelx_hkl_checksum              35299
loop_
_atom_site_label
_atom_site_fract_x
_atom_site_fract_y
_atom_site_fract_z
_atom_site_U_iso_or_equiv
_atom_site_adp_type
_atom_site_occupancy
_atom_site_site_symmetry_order
_atom_site_calc_flag
O2 0.4289(15) 0.8031(5) 0.0927(5) 0.0589(13) Uani 1 1 d
O1 0.631(2) 1.0108(6) 0.1806(6) 0.083(2) Uani 1 1 d
C1 0.5234(11) 0.9513(4) 0.0804(3) 0.0483(10) Uani 1 1 d
H2 0.455(2) 0.7401(8) 0.1979(9) 0.063(2) Uani 1 1 d
N1 0.4753(6) 0.6064(2) 0.3668(2) 0.0338(6) Uani 1 1 d
C4 0.6502(8) 0.4635(3) 0.3566(3) 0.0327(7) Uani 1 1 d
C2 0.3252(8) 0.6449(3) 0.5076(3) 0.0324(7) Uani 1 1 d
C5 0.8129(12) 0.4269(5) 0.1955(4) 0.0495(9) Uani 1 1 d
H5A 0.758(6) 0.5158(19) 0.1119(12) 0.165(9) Uani 1 1 d
H5B 0.726(4) 0.3212(19) 0.1667(15) 0.116(5) Uani 1 1 d
H5C 1.066(4) 0.397(3) 0.1889(17) 0.146(8) Uani 1 1 d
C3 0.1399(11) 0.8079(4) 0.5117(5) 0.0474(9) Uani 1 1 d
H3A 0.271(4) 0.8875(14) 0.549(3) 0.173(10) Uani 1 1 d
H3C -0.095(4) 0.8029(17) 0.587(2) 0.131(6) Uani 1 1 d
H3B 0.068(6) 0.8507(17) 0.4060(15) 0.148(8) Uani 1 1 d
